!Created with skrf (http://scikit-rf.org).
# GHz S RI R 50.0 
!freq ReS11 ImS11 ReS21 ImS21 ReS12 ImS12 ReS22 ImS22
1.0 0.29796557781060273 -0.3069640401188858 0.7647854398677599 -0.1123714431140847 0.8216712932190677 -0.1945831836586209 -0.12597535645026497 -0.2746565969075235
1.495 0.09714283293200242 -0.11248076729308376 -0.8372868922042803 0.006961196405340862 -0.8394808670360243 0.00779616139995031 0.11959367164927746 -0.12603736303880403
1.99 0.2942569206667615 0.036334649436515196 0.7615359107059343 0.1422889245993644 0.8223887415745988 0.072853187919111 -0.1580129577595264 -0.05300165465278049
2.485 0.24429792446877174 -0.17459626139332038 -0.719446402073933 -0.2139546762980107 -0.7404674296653624 -0.1562420297759296 -0.06729446787047359 -0.28143428455908126
2.98 -0.007857037281738592 -0.04273301978928758 0.7131734572642288 0.3180415541899095 0.712304766262079 0.32116922232585243 0.046197667136409756 -0.05168501543809669
3.475 0.12798084159733744 0.12152668892821455 -0.6393325401768865 -0.3920898631413753 -0.6526981309260809 -0.3523000250631756 -0.20440172614335894 -0.12460511352512041
3.97 0.12950686607184667 -0.07580622644869352 0.5690393853484746 0.47813280704350747 0.5547563395356973 0.44200022923063087 -0.00530700750943016 -0.24345070667399502
4.465 -0.12443782180452469 -0.01871023266307383 -0.48395736726214944 -0.5366799787145088 -0.48559260010979566 -0.55380043429379 -0.04491959871171696 -0.01758770848267719
4.96 -0.025891279201809857 0.1574825137139873 0.42824204696084667 0.5645315872261886 0.40898976203023085 0.5520692605875009 -0.1940247295446103 -0.1827824635758168
5.455 0.028532033017679894 -0.03390011546590985 -0.31305237808019176 -0.6415117914001547 -0.28738773695245373 -0.6260279989671337 0.02425552977064281 -0.16828502947196616
5.95 -0.18230995299836092 -0.04876207348960005 0.19449198246358193 0.637965381336913 0.207357637866193 0.6698800969843748 -0.13307041433187766 -0.02210520583601609
6.445 -0.11116427208462326 0.12642201852670262 -0.1474033928874281 -0.6476839781674347 -0.12081594779270553 -0.6451660145396675 -0.1497206717517832 -0.21029125248447625
6.94 -0.005443625225659994 -0.043304956607877185 0.004561345505872305 0.6778818642173327 -0.009463983069273395 0.682910972657724 0.0025486055078705596 -0.08408408527441066
7.435 -0.16294243916649298 -0.0998960668559662 0.09849855484755263 -0.6252742661836775 0.07397181360918358 -0.6658888167942214 -0.1943582748596882 -0.05562093763060682
7.93 -0.11412327625058945 0.06940829938211535 -0.14936245643501112 0.6240217840083437 -0.16662619066922638 0.6262973138720908 -0.09722943232291772 -0.19613659803745928
8.425 0.031952804237613805 -0.054045040650742726 0.2785640076568896 -0.5912392672416953 0.2768898192405698 -0.6134259168392161 -0.061972930372857685 -0.0234202119027412
8.92 -0.08397708422676513 -0.11931251315521074 -0.3475803219820154 0.5182109919056933 -0.3167452350033292 0.5551461145075663 -0.2180032090211905 -0.10169374795656712
9.415 -0.05083724462309038 0.045167697240023334 0.40039134148886113 -0.49075663045155077 0.40749452252176593 -0.49530964963985946 -0.0639894198181862 -0.14669319585427051
9.91 0.11230365133876243 -0.022860645834965315 -0.4754021562243547 0.41731145804363623 -0.46971686539722995 0.4430128775274548 -0.1444723600397125 -0.002100728114801197
10.405 0.020524110838682375 -0.08818195407954753 0.5187301098902396 -0.34406097213817427 0.4894479019097289 -0.36112109840636347 -0.20275608134544254 -0.13989667415966492
10.9 0.035151814673450237 0.07166435501509215 -0.5528139803247306 0.27775211586247195 -0.5597943625063586 0.28154012230169867 -0.06719332682743577 -0.0837479994072213
11.395 0.19023172965020257 0.038464535648004436 0.5633105985842407 -0.19766961403506433 0.5666909389028527 -0.21131260305281566 -0.21033463328958163 -0.019782727669640114
11.89 0.1092775350297302 -0.031607071098221196 -0.5907939886577634 0.12130576254068598 -0.5730418628141312 0.11768824660146648 -0.16230425365943169 -0.15328639544755485
12.385 0.08936799166476342 0.1190617320478842 0.5856321460384588 -0.02590827493237967 0.6008913984095309 -0.029364703784676392 -0.10353955153099316 -0.025346236059610144
12.88 0.22570900025345988 0.09742684741601809 -0.5542837189102406 -0.03759216253144367 -0.564714399197945 -0.038914545455382095 -0.23969683030090705 -0.0618728256977055
13.375 0.14145577648218688 0.016217950887909248 0.561738913179593 0.12398164153877267 0.5521410076944272 0.13795962488054186 -0.1172953771862234 -0.13189708651911752
13.87 0.0846866215327922 0.15094848211159262 -0.5118500613895388 -0.21683566920574493 -0.5323462961698785 -0.2109592483565477 -0.15734379480831487 0.007861657812170159
14.365 0.20946218499319294 0.1334157102751637 0.464550295014255 0.257675932518565 0.47044131811381495 0.2679294212569365 -0.22811779924330627 -0.1053184196749588
14.86 0.12720460618324417 0.029926958372882874 -0.43873935853217866 -0.3458210426696536 -0.43415139179152856 -0.35899365985580495 -0.09003153496612218 -0.07909319364801208
15.355 0.04379058666228602 0.140360936821082 0.3599890742368914 0.4078231613762256 0.3795460134333603 0.39780156790987664 -0.20703423325423628 0.008849009648244218
15.85 0.16997334922616658 0.12966960615711473 -0.3071578895493373 -0.43153036732705075 -0.30454274615413013 -0.4432049059534851 -0.1876523913850775 -0.12852090987795822
16.345 0.10348874645053306 -0.007045521339490385 0.24516727491688 0.49545398001759844 0.2451515652976781 0.5049144257408668 -0.09694188021613882 -0.014221490082634729
16.84 0.004821239734530041 0.07840328855391189 -0.16466999174819386 -0.5201086037618923 -0.17423852187262823 -0.5034526110227752 -0.24070491895974758 -0.01608684383928804
17.335 0.13649831451230585 0.08390870331454502 0.1017982892936044 0.5259633146358229 0.0909807956967852 0.5332185538500235 -0.13490234317154637 -0.11519971903128957
17.83 0.10150793978132865 -0.07987180923951351 -0.022614508635480157 -0.5370291394613887 -0.02467718238225618 -0.5495368642714491 -0.13422959544334087 0.03972865277160154
18.325 -0.013127265994399982 -0.012973714417232926 -0.04172953530419125 0.5347973782180242 -0.046306583603394236 0.5180432796469121 -0.24649642200901553 -0.0531711371887796
18.82 0.12125021843903609 0.024663705597143277 0.11774797509581592 -0.5151274550573329 0.13016701774524744 -0.525317646388465 -0.09774960204880537 -0.07014427333841436
19.315 0.12540817546747035 -0.13904000092471866 -0.18559474776174295 0.469365895740001 -0.18389238112802808 0.4924560135469287 -0.1867539048172902 0.06274263031313866
19.81 -0.0059189542264035675 -0.08969782340066086 0.23468854470330214 -0.4520502577696228 0.2484528957760026 -0.4431805960686568 -0.22149604382038413 -0.08432564856889405
20.305 0.12461315129910802 -0.006019674083537938 -0.31256494791465783 0.40186208988057504 -0.319112617637172 0.4218526096305815 -0.08605927175970071 -0.005229108859676992
20.8 0.16623198302820308 -0.15098622085137908 0.346840053050007 -0.32357484913149065 0.3460178525634422 -0.3536225184454859 -0.23479806126533564 0.05019408307701589
21.295 0.021331305954197605 -0.12355695956861075 -0.3872913526688663 0.29554952430445786 -0.4013522471137752 0.29317466386659363 -0.17607559240671036 -0.09420734189021635
21.79 0.1273664731588707 0.004210636702516707 0.44389555622387095 -0.21887081635819627 0.4407819908281393 -0.2448091408842754 -0.10878141687081624 0.05368735491582672
22.285 0.1970787778169011 -0.11745092850910602 -0.4422918531929494 0.13764795511972483 -0.4401217468562877 0.1634730840651001 -0.25790215079268564 0.011032107230153666
22.78 0.042607416605333674 -0.1177542008782126 0.47203409286943854 -0.09482759257052009 0.47902507301888386 -0.09382054876475752 -0.1272902581481867 -0.07542926437769497
23.275 0.10174275752804803 0.039485077129765685 -0.49049284269360305 0.011951380031949593 -0.4782557752701191 0.03394158610203337 -0.14949636317627624 0.08630677671142854
23.77 0.1940790772823299 -0.058171169167979105 0.46645165282673745 0.056408442036736735 0.45604754201052333 0.04508559680968882 -0.24932434677371015 -0.03510151972146303
24.265 0.03655477805210882 -0.08985913581901499 -0.4693843342066109 -0.11393408949589338 -0.4705216235327725 -0.11705080761105831 -0.09192640535088954 -0.03073389891057525
24.76 0.044381550417890124 0.07687825979655066 0.4496759325919861 0.17561235950798634 0.43050000301164193 0.16950869373903854 -0.19554178389458074 0.08763419785830438
25.255 0.15431349470132524 0.00647206177952743 -0.4161747129495317 -0.23040593555892339 -0.39423470176218117 -0.23897207716204513 -0.20942355534065604 -0.06658561702865878
25.75 0.011455402801626916 -0.06305186480305874 0.3749837716635803 0.29049032132804903 0.37752018429954576 0.2991079816961605 -0.08161846039130838 0.02626720824027224
26.245 -0.020154442094982093 0.09420759547637153 -0.3313511538738106 -0.3195004633674137 -0.31162880828743056 -0.33043654159601005 -0.2276056500161434 0.06196941890775287
26.74 0.1057418073992576 0.05228273985724447 0.2884703043051817 0.3634279530035314 0.266825481507298 0.3875685266060792 -0.15610979729882643 -0.06943791846212836
27.235 -0.006011046863185322 -0.05716400958464665 -0.2084567588994521 -0.40501898965150535 -0.2205908210475131 -0.41712680021714404 -0.0992019453131987 0.0751090679347367
27.73 -0.06295538476401778 0.07518917153254912 0.15847954986945406 0.406782040200202 0.14660247456664943 0.42702673451084294 -0.2342486785557004 0.023150307347539027
28.225 0.06933093126041967 0.06374585282183638 -0.1044605851770335 -0.43744888944127286 -0.09385880230926041 -0.46243271345181075 -0.10520056519969166 -0.039832051067874005
28.72 0.002080421696275855 -0.06878004857367355 0.010006972482143576 0.44131544753835633 0.033325305307581335 0.45439999347220944 -0.13790339822455847 0.10181762890187618
29.215 -0.07244307098530568 0.037198060112810974 0.035482755596148934 -0.4261207836819923 0.03809183555744457 -0.44465259304793925 -0.2134774404907411 -0.012203254703882626
29.71 0.06043240210365897 0.05513223428881059 -0.09677863536910106 0.4329652163800572 -0.09232878908847329 0.4503041243046574 -0.07557910287870044 0.009833399506193196
30.205 0.039562621571477 -0.07729836404664649 0.17689596338392918 -0.402288311943981 0.1498765061181221 -0.4076066492288618 -0.1765553462744709 0.09652622513046971
30.7 -0.04335571475014512 0.004833170268485079 -0.21748881866576844 0.37616899021802513 -0.21217750638094562 0.3848014837838467 -0.17304948897137432 -0.03039532637630821
31.195 0.08250494689817753 0.05328695252024221 0.2690429664522111 -0.3505522868595444 0.2568195993338831 -0.3565713696471653 -0.07838626444473822 0.06004181428267636
31.69 0.09526348885985177 -0.06351684038198374 -0.31734979169556793 0.30198955725530335 -0.2981651079393392 0.2933719656595396 -0.20122570391996714 0.06731417836763824
32.185 0.008750461944229652 -0.004671968552272784 0.3523861717462943 -0.2611605248734851 0.34637486995680056 -0.2574339526198654 -0.12663625181224247 -0.02468243228779864
32.68 0.11661291395189409 0.06513468294256933 -0.37655555660018364 0.20852978803280764 -0.36838291760344444 0.2024119236908348 -0.1058150862652018 0.09258345933068171
33.175 0.1471156718990285 -0.03602518872873695 0.39412509979371896 -0.1570682561330759 0.39143421672435724 -0.13442521822008194 -0.20068299625285183 0.027868261496944026
33.67 0.05752162191408182 0.0034550313088945956 -0.4165005673051666 0.0977294600302947 -0.41915001317997513 0.08755543102275531 -0.09009954480579026 0.0025751983987029334
34.165 0.1355160430882521 0.08427871579679991 0.40648850799886244 -0.03397942777262318 0.41072671295846575 -0.0212988309496309 -0.14150743807701213 0.09677810087342022
34.66 0.17040682121666273 -0.005225418959714966 -0.4034483732364944 -0.01457693936083066 -0.4155186576633314 -0.042673348602127445 -0.17073056824269875 -0.0047871026458801355
35.155 0.07548179972539745 0.017709039066502116 0.40328411016045984 0.08494869176874772 0.4129609962075592 0.0935709413445691 -0.07464282524547829 0.040913299404336266
35.65 0.12638015080352405 0.09898922196983129 -0.367896245746279 -0.1388839683977895 -0.38137915347057494 -0.15438829622757552 -0.16893913922495588 0.07590980212169035
36.145 0.16636095227667275 0.016390972693914502 0.35051088317009427 0.18347450760177272 0.36814893298141543 0.20748023761971854 -0.1275933361838616 -0.016942299337269904
36.64 0.06532024468879864 0.019525521192028016 -0.3219375853202839 -0.2488163589144016 -0.33361364041972247 -0.2502038534864945 -0.08259838826549104 0.07442065125251407
37.135 0.10078100145876859 0.09694574212454482 0.273985169953864 0.28330675035478964 0.28666152241469317 0.2948115995332212 -0.1744378952112545 0.04058295860859454
37.63 0.14481440625195482 0.014475986588052029 -0.23916205958852585 -0.31817319958081614 -0.2569289852198641 -0.3313843681274387 -0.08257287966148244 -0.003655634264376289
38.125 0.04609179381219376 -0.00481830611332723 0.19019072236227735 0.3600460629428077 0.19756417453721684 0.35379770607734584 -0.10842457484764456 0.09062010224061665
38.62 0.07249155535284382 0.07132756829318271 -0.14059548221185075 -0.37633726249297605 -0.14714320018311114 -0.38009589176383324 -0.15438023059530875 0.0058723133208441955
39.115 0.12723427524665473 -0.011541481616574013 0.08897203680438331 0.39056358204379 0.10163017306681484 0.39365530257069076 -0.05581552742412445 0.0294517979659077
39.61 0.0316560501795155 -0.04913533121995618 -0.03566873964755699 -0.3985005296314482 -0.03326172604910204 -0.39158539269237497 -0.1385592302395098 0.08344128338567998
40.105 0.048211179276018576 0.030721486298297622 -0.01362743843451301 0.3988167649094037 -0.015135089583697801 0.3981057864103224 -0.11755267028712407 -0.014686459819807474
40.6 0.12168424272234525 -0.040874163361844164 0.0747585185542706 -0.3809594628497298 0.0691228625688088 -0.3815982481048019 -0.054496723680705385 0.0661127671179335
41.095 0.03395691987614035 -0.09045822914756184 -0.11882351248973338 0.35974111899005506 -0.13068175368350565 0.35877165479425177 -0.15717533511171863 0.05516699658299225
41.59 0.040029858074532874 0.0008862633505024961 0.16786896151654818 -0.34600441847183117 0.17314490460353882 -0.3467394998115922 -0.07650656953317385 -0.013986019913960167
42.085 0.13420632811188948 -0.051157560047003836 -0.221030532085167 0.2991700996607899 -0.2208775545411049 0.30200245093895034 -0.07899948087329023 0.09139373326010931
42.58 0.05351963515967096 -0.11102904147218896 0.24945776968463812 -0.26276531302142914 0.26704139579633135 -0.26719343128254464 -0.15538915566094944 0.01685638328873654
43.075 0.040583764103306705 -0.008739377123645148 -0.29389329825573196 0.23359111202272548 -0.2967987225643226 0.2343732918085807 -0.0445294790761575 0.007354909332094509
43.57 0.14700562699275366 -0.034051069107964856 0.32300884027186194 -0.16992308735418096 0.3265855339828915 -0.17288440308343836 -0.11487407864622097 0.09309941926245262
44.065 0.07647935987424086 -0.10699512024203985 -0.33656406055710375 0.12760901452241344 -0.35520982638085186 0.13423332673201682 -0.13151882580132718 -0.017715614446908917
44.56 0.03659090256232968 0.00038181310049391603 0.36470913804076033 -0.08395126773308931 0.363880278901218 -0.08445787971966769 -0.0339382028701551 0.03981209432943243
45.055 0.14570629058696025 0.0032907941855812328 -0.36705005255101414 0.022511408298861786 -0.37128323129420154 0.020490487703443448 -0.1447075626044886 0.06970204153361545
45.55 0.08742118624040283 -0.08309502798435556 0.3658306103568312 0.023406202444939996 0.37929247338490907 0.01815127302444034 -0.09286827648547025 -0.036166207028250165
46.045 0.016980606062846165 0.018464123374058103 -0.365512033966869 -0.07115573711230952 -0.36282298712775296 -0.07471008041854026 -0.04678069037425935 0.07006160728915843
46.54 0.12263619029480242 0.048740377605574994 0.34719354382284545 0.11627360535791255 0.3503536404233484 0.12830358178253992 -0.15503320892011016 0.029771942841785942
47.035 0.08620117200303873 -0.052139427233800134 -0.3282657615778801 -0.16575441042929895 -0.3357662502286485 -0.16314604652104694 -0.0517468016551013 -0.03111828422420173
47.53 -0.009946972629708638 0.028863174993169365 0.29618843425005675 0.2043881076295717 0.29474555026467836 0.2133214602852232 -0.07590647595220888 0.08409989123204548
48.025 0.08767756906428613 0.0817759939949332 -0.26743014212481264 -0.23188218571407127 -0.26959378554707736 -0.24943935914947635 -0.14263492119517085 -0.012000675176012167
48.52 0.08067812486861342 -0.029366488688598796 0.2246244523990073 0.27617409725059916 0.2323420763832462 0.2756824678131975 -0.02431773372721463 -0.005013431014122445
49.015 -0.028403331136634867 0.017512749110306293 -0.17267087433251677 -0.2961179351438424 -0.17715703156265467 -0.30895536311766947 -0.10901204381480854 0.07625515620798456
49.51 0.055618073823454225 0.09074056587949755 0.13982334598778634 0.31042580938103614 0.14495598146933306 0.3266494537450674 -0.11313846159933293 -0.04214090375003314
50.005 0.08177712284820397 -0.02194254703550727 -0.08091111292324514 -0.3383860225253804 -0.08864213778778463 -0.33486828215392633 -0.02133341905642325 0.031243151726089494
50.5 -0.02918310732925762 -0.008569851558738097 0.024647617299154528 0.33500207567790813 0.031631207036525076 0.3455379336992275 -0.13508043090443103 0.04964928943305897
50.995 0.03689411176506073 0.08068047182082091 0.010583249047936465 -0.33785725953954565 0.004567792166888596 -0.345865217893491 -0.07350811872838557 -0.04978422301833288
51.49 0.09507077027219248 -0.019802857690273033 -0.07238568904361037 0.33865535900055244 -0.06636282675617071 0.33121156528170326 -0.04136709671066935 0.05956846022640181
51.985 -0.006238211944300145 -0.034978882174330976 0.12052183621402307 -0.3182379870333764 0.11452646914185984 -0.3238753547799653 -0.14206396300427543 0.011504103362102476
52.48 0.03871822990158215 0.06473563854468331 -0.15589343930926663 0.305682697708167 -0.15132588472316277 0.30487054666466507 -0.04161036938061199 -0.03558775718985297
52.975 0.12319799270893336 -0.012430886753033983 0.20142899620653365 -0.2798356717122472 0.20431510973355735 -0.2695847601726546 -0.07580225452396785 0.06855654592834179
53.47 0.03613595245865983 -0.04961734885662566 -0.2368168046309828 0.24977613897711062 -0.23710887449679952 0.24774632989478712 -0.13061272516200398 -0.025073676272074664
53.965 0.05605553766896656 0.053109188638832024 0.26615806810812676 -0.21678761681852252 0.26687892189932005 -0.20915540327387094 -0.02809458108224188 -0.007523767608550314
54.46 0.14898781619699697 0.002771692556107031 -0.2846129558640502 0.1744007004398415 -0.3004563466206693 0.16285291556128248 -0.11187176408915954 0.05508320595154377
54.955 0.0783023351893523 -0.04958090442886356 0.3060668929789553 -0.13641315232905565 0.31663237874332323 -0.13195873926421428 -0.10362501634716934 -0.048693632639828024
55.45 0.07046279119880255 0.04839261786591415 -0.3208615534318647 0.08521371885333497 -0.3294437874181373 0.07844997271328143 -0.035229215151009824 0.02174668866469784
55.945 0.16180706247320784 0.023090456726627805 0.3137996795528092 -0.040027325383320135 0.34094439571458623 -0.03276105833709643 -0.13203424499279098 0.02216251450515935
56.44 0.10370801150610495 -0.038811988075529734 -0.3230353801669437 -0.0032727667617702023 -0.33780219644244197 -0.0050074350764781235 -0.07206355050507394 -0.0522230142050363
56.935 0.07179157867886281 0.04898012311116871 0.3166132197757053 0.059898781691453504 0.33040195474564404 0.06128488015404108 -0.060543629768814236 0.03905786733584732
57.43 0.15422082675694046 0.04131242080304302 -0.295349585571858 -0.09774261620062807 -0.3208670824036617 -0.09877819838647582 -0.13288587941767246 -0.01566549331044822
57.925 0.10711731377644082 -0.027127965108108984 0.28773086780143603 0.14309151239357973 0.29819587339316816 0.13877462905649574 -0.04811220439791447 -0.03581203542679273
58.42 0.05879088980500292 0.04300535069164234 -0.2588877812965149 -0.18944998761663245 -0.2726031916511221 -0.18573593286431855 -0.09236481403221472 0.03733590325062586
58.915 0.13270222277474916 0.04640156032575702 0.22846709863618517 0.21697697558198398 0.24590714253397195 0.21107711114314226 -0.11630804497539778 -0.04533899713519241
59.41 0.09796910844092416 -0.028485926438693646 -0.20096770315470325 -0.2527629757515032 -0.20515024805109047 -0.24491680261675144 -0.04204029774858303 -0.008566599168302751
59.905 0.0411194894371975 0.024629948532712696 0.1629499904922614 0.2801927956924567 0.1676787018631366 0.2732507925776483 -0.11950651299011748 0.01791359870744641
60.4 0.10851107917581303 0.03464934553665766 -0.12494150311369949 -0.29492150995106353 -0.12967240181986917 -0.28631337669579665 -0.08765693010403172 -0.05593971092172038
60.895 0.08412044385410462 -0.043938586979615314 0.08294384296558277 0.3104259920302717 0.07752146021838734 0.304803108861403 -0.05677121043845143 0.01639010114604315
61.39 0.0241989278432051 -0.0026130322717058956 -0.04394629257073448 -0.3161482364462717 -0.03790519132500417 -0.312477849355604 -0.13054414326653022 -0.01184853673200957
61.885 0.08945322046262093 0.015125939505515577 -0.0006736066320785467 0.3169078060749623 -0.0075859797871226245 0.30987709914968187 -0.06234082233795703 -0.04618960913397773
62.38 0.07955742409674067 -0.06226276781422895 0.04767155281152356 -0.305196587125746 0.05957432001680486 -0.3087281563710166 -0.08600979768127553 0.02734983759430921
62.875 0.019011589432495406 -0.026239881403862124 -0.08299678815652549 0.295130650370198 -0.09446290004831219 0.29770771192710205 -0.125099959282902 -0.04063160873271425
63.37 0.08597297980233824 0.0026924454111433805 0.12932382408837712 -0.2788454298571892 0.14047664161459902 -0.2787291058279012 -0.05171799321558076 -0.02185842048143532
63.865 0.08867956886024156 -0.07143992771228866 -0.16668986610327863 0.24489014178889834 -0.1808674511492877 0.25983657937627314 -0.11870600464909903 0.019035678248807093
64.36 0.02427522541349415 -0.03891417728089191 0.1962705416516259 -0.22472735910020905 0.20688619064341263 -0.23250633011747873 -0.10500327434242049 -0.05791201135114439
64.855 0.08855750751219084 0.0049779910834417 -0.23410871494790644 0.1915064388480191 -0.2441919550767804 0.19800342467317825 -0.06025122700878427 0.005752795805256348
65.35 0.10398119158905472 -0.06565832327804001 0.2540352152912903 -0.14777803597091235 0.2648459690301463 -0.16730316120980537 -0.1405106015883068 -0.00562962493505643
65.845 0.03150795824371853 -0.038487685541536705 -0.27502152620950526 0.11842473449721595 -0.28095392307240147 0.1279376741176239 -0.0801710441994801 -0.057721438483780065
66.34 0.08875390794600928 0.02316392050579645 0.2940279317426072 -0.07594182947689285 0.2993804325898904 -0.08411992243187603 -0.08534683912784208 0.02322530807054759
66.835 0.1139828065319952 -0.04429949608872838 -0.29744885391238735 0.032461494358880925 -0.3006287067613313 0.04921896128687992 -0.14541749147751817 -0.03662049347471126
67.33 0.03258926770774271 -0.027783498342974885 0.30312568487830643 0.004678484678941055 0.3003918161853484 -0.0014370416079987711 -0.06202717194722792 -0.04065526939613511
67.825 0.07504545519904815 0.0489885479176798 -0.29802475978284976 -0.043889818808238994 -0.2997414003813655 -0.04043804273281848 -0.11907211980748256 0.023963850871925114
68.32 0.11615961085203973 -0.014527283585891993 0.28669247893958694 0.08249253310187886 0.2833528382893518 0.07501416901613253 -0.1316061809075546 -0.062029037686010396
68.815 0.0281282114477393 -0.016685965231215284 -0.27035101203569184 -0.1227727345235283 -0.2686699725840468 -0.12334857110159707 -0.05840557473946251 -0.012886003252250948
69.31 0.05450599699443385 0.06918148366142222 0.2470421495650762 0.15060554736020257 0.24833022159420542 0.15452231982096376 -0.14662264700741207 0.007374477640946883
69.805 0.1110338092716725 0.010963899149471944 -0.22409498320580337 -0.18315193417180592 -0.2164062269542365 -0.18373588245862513 -0.10543258897693973 -0.07184492535404594
70.3 0.024053501411430107 -0.016781683500632805 0.18627224319220015 0.21695468889221353 0.18650557450305405 0.2224541602436574 -0.07279355219106184 0.013754160967884248
70.795 0.03181516981758229 0.07229507934311423 -0.15366140036081544 -0.23086798502854844 -0.15531690970347498 -0.23813074977767257 -0.15883214264665868 -0.019599952979304076
71.29 0.10472328456397806 0.024540353966169264 0.12144057523937964 0.25515215392498497 0.11364693066594853 0.25927491405563735 -0.0776357743938382 -0.06098746131147217
71.785 0.027699998382144153 -0.028323619719906774 -0.07098001714345381 -0.2712971129997338 -0.07491135837115459 -0.27922981624604926 -0.10156719794898605 0.028896390468577463
72.28 0.015534181998404723 0.0584457424382646 0.036679015066122325 0.27111863632827 0.03937092291348162 0.27919232386002996 -0.15399764745211586 -0.0469133166604299
72.775 0.10458838700448092 0.0294935281450163 0.0016788955319493159 -0.2822734322398565 0.00806644963505025 -0.2858804457477477 -0.06199687868618012 -0.03437844216399989
73.27 0.04647257189812036 -0.043742530854448874 -0.050846329184314525 0.27737751915501796 -0.04489653392625786 0.2851314956686543 -0.13550406675039747 0.027034451448251888
73.765 0.01468418821528644 0.03817633297423619 0.08283756937132082 -0.2674343373439178 0.08028982374468671 -0.2709130878605632 -0.13490065614655652 -0.06467080687567306
74.26 0.11205300020054627 0.03168617572895226 -0.11860796739598144 0.25605429230728005 -0.12529951673980919 0.26137124440027815 -0.06577894115811324 -0.0025462575343132765
74.755 0.07828593943170817 -0.05327245900045793 0.1547746645414665 -0.23611390470067867 0.15175741316752747 -0.24099513268090006 -0.15964244662218444 0.008711363071369398
75.25 0.02676493095424594 0.015064759657530739 -0.18382954595037293 0.2156159270852735 -0.1830596612666927 0.21370775122479074 -0.1089533479424113 -0.06613881429170416
75.745 0.12072547800819326 0.03540930258349156 0.20717727083561405 -0.18395942259316386 0.2153512743015817 -0.18850264724194155 -0.08771176305174756 0.02274341003184644
76.24 0.11003548719170253 -0.05181104343425456 -0.22626712403564575 0.15406801500447947 -0.2282438909408585 0.15589304957690722 -0.16807115974981807 -0.018093121150374238
76.735 0.04411388384814104 0.00014771284981291612 0.24880694565452668 -0.120996610444102 0.2513945561838702 -0.11865928920728953 -0.08717951197161584 -0.05070022935805126
77.23 0.12245008519292329 0.04332573637345606 -0.25439921988985753 0.0776344404700788 -0.2655302204031931 0.08482155294958481 -0.11958811070381763 0.0327201369682661
77.725 0.12946990671256806 -0.03908419786912864 0.258484088061752 -0.04446737486462275 0.2650552875751135 -0.0459776390609755 -0.1591203886134263 -0.04297348695935923
78.22 0.054378509978818726 -0.006433491115878559 -0.2692261165499963 0.0026117174533189123 -0.27298130185190045 0.0027920444051103663 -0.07730246601084072 -0.02350295863547681
78.715 0.11234966130955004 0.051849137048708 0.2579961430518892 0.03991601556200996 0.26554501390666174 0.03166854786976942 -0.1472871468683615 0.02448478328834629
79.21 0.13547784845115787 -0.022452285369832216 -0.24872932535837175 -0.07151245793717388 -0.2541516484413854 -0.07145163327090263 -0.13794367927133122 -0.056636729019845386
79.705 0.05536107969920365 -0.010521044474977603 0.2423857284431043 0.11424240527165182 0.24523240105715505 0.112028381627148 -0.08503587802226097 0.004566100352367891
80.2 0.09338092201065817 0.053539608891446475 -0.21847784749751328 -0.14715330152232856 -0.22195426477144495 -0.13941401489981245 -0.1639601919740915 0.003751358202607727
80.695 0.12708579807846096 -0.011355322458247543 0.19857020150953736 0.17397278253767162 0.19804458484344398 0.17463642903940313 -0.11119736812372367 -0.052261665639621945
81.19 0.050171704330927464 -0.01990784571395554 -0.1752332389498728 -0.2057335031763606 -0.17429909405215074 -0.203815758117316 -0.10513899863458016 0.023920900081577073
81.685 0.07123946690647948 0.04444930054072807 0.14557359161658529 0.2252665044934875 0.14098529598582438 0.22007400650061518 -0.1637660927288965 -0.020231143027551534
82.18 0.11093017154516067 -0.010692016928772127 -0.11346186995644787 -0.2412509599396982 -0.10788104570885464 -0.24467161335278692 -0.09286235863800582 -0.032139204124777256
82.675 0.04155721631257181 -0.03329429960542418 0.07979879004746677 0.2532552609454452 0.0755515934946393 0.2563700281719233 -0.132166962909316 0.028769990169649137
83.17 0.05008314980482108 0.026879490203933834 -0.04786233948585411 -0.25979353502009084 -0.03777054338952736 -0.26039154015542804 -0.14776820886060504 -0.03696027347096075
83.665 0.09816545652415765 -0.015936123039504816 0.006875100618739926 0.2595123381702598 0.0009701309804360497 0.270206345945028 -0.08905029923060136 -0.0037040650123979298
84.16 0.041465973080415185 -0.04737749379014838 0.028327754689150452 -0.25180156018308536 0.032680108924777886 -0.2623880832504024 -0.152064959201563 0.018240265795156696
84.655 0.041495137880690085 0.011517334296380272 -0.06058177737556611 0.24657711690478934 -0.07024053387982443 0.2554200202139956 -0.1257092029151706 -0.039902542053054796
85.15 0.09669420711124616 -0.02009747494393098 0.10183684446460188 -0.23157558980667947 0.10326147395470046 -0.24484893983335615 -0.10171670633052848 0.021236020456995446
85.645 0.0485341468635847 -0.0541349546685935 -0.13062645570553272 0.21015203376433392 -0.13208695618790356 0.22222965986990245 -0.16029300810113256 -0.0013464525134246241
86.14 0.04339600880250051 0.0038997664891507106 0.15997477971204585 -0.19368390324824672 0.16397990721371952 -0.20279592923106876 -0.10454520401068856 -0.027049408572397023
86.635 0.10085483799697784 -0.016321172682238903 -0.19016877558291018 0.16289924571964629 -0.18682884366105923 0.17708708831975897 -0.12523047191703537 0.03340753302644952
87.13 0.05892261900068465 -0.051780046087300954 0.20899538419313735 -0.13429529426709944 0.20637298626169306 -0.14382167786079475 -0.1536074687916441 -0.021230342073489047
87.625 0.04815630254154587 0.007741395540336096 -0.2311335660392078 0.10866230885873626 -0.22784326081733236 0.11499993385891898 -0.09432493850464577 -0.0037182252324740226
88.12 0.10583606178922055 -0.0019771387437134704 0.24237777732881088 -0.07159260647472994 0.2345399960241515 -0.07907986026540478 -0.14804394083205447 0.028742170402678183
88.615 0.06715075829407069 -0.04064868096067681 -0.24986266565768128 0.0393198268298242 -0.2443080598118266 0.041737683422500206 -0.1344261144896664 -0.03225649282201885
89.11 0.045500840250536655 0.01979014850902488 0.2539809483315028 -0.007154707076733826 0.25020616981447175 -0.007734518255630022 -0.09875438565013327 0.021066193958790936
89.605 0.1056092756218534 0.01954984497550085 -0.24921187224113275 -0.025512982936073157 -0.2418930516643693 -0.02943289341395079 -0.16096538056024712 0.010943945318841259
90.1 0.07275972586073735 -0.02690314008722068 0.2449402137570972 0.060371857475373394 0.23825947335959502 0.06617421681131892 -0.10990684211981189 -0.02847802581961925
90.595 0.03883964552324979 0.031150304618022404 -0.22897434236637412 -0.09163571201817718 -0.22665537612091322 -0.09775140687779024 -0.11499150636591979 0.037666803553493666
91.09 0.10087713140952355 0.03898392286982851 0.2123025175941738 0.11717291982606574 0.2056829984646112 0.12922827014751673 -0.15818731903913125 -0.011219854090369248
91.585 0.07463662891949599 -0.01830843713215983 -0.1920679570523195 -0.15037056564045645 -0.19188129731390516 -0.160765298336452 -0.09173771831673708 -0.010513103715376407
92.08 0.028062525603613893 0.03170160875104552 0.16174765001157473 0.17290214039191018 0.16445925156289312 0.1817447798181566 -0.13651853509607073 0.04045979590895056
92.575 0.09150797186006702 0.04965261896324946 -0.13791493742217753 -0.18992740586599982 -0.1370728350491967 -0.20524910384161155 -0.142389342369384 -0.028041215524981754
93.07 0.07735058300897225 -0.018316897125967492 0.10562355042933613 0.2147954931185891 0.11177282995227916 0.223959526491502 -0.08652853775801546 0.01583751728326677
93.565 0.019763578494736277 0.020021310715730885 -0.06950424081198853 -0.22412493816731546 -0.076031872101166 -0.2304644450966941 -0.15519088255256647 0.029277494393505327
94.06 0.08258093506446366 0.05135434990556466 0.04165202709949696 0.23045049262330392 0.044831322792988515 0.2430054021610443 -0.11692822967106682 -0.03174287423320803
94.555 0.08640187746028048 -0.022951675590610923 -0.003464602211857661 -0.2392631569758104 -0.013332963463358265 -0.2444970474332062 -0.0951370386152427 0.039607013858588155
95.05 0.022113169874819105 0.0009009974504315038 -0.030907113587643874 0.23614713834593368 -0.02311739798683329 0.23751910226385728 -0.16107573465297273 0.008619164230254509
95.545 0.07935264904883152 0.047264688670008506 0.05911800523453878 -0.23052591707798412 0.05427364244276439 -0.23623333346445266 -0.0924652453475078 -0.020326302645654142
96.04 0.1048296253694885 -0.02683075884458182 -0.09245996252144646 0.22094819179939834 -0.08463263407153866 0.2196845480323607 -0.11608819583944975 0.05204740429722632
96.535 0.03480398956033217 -0.019925411051222707 0.12014207339824494 -0.20654034183505657 0.11687351824001814 -0.20286194288876186 -0.15399499851723272 -0.013043142283961806
97.03 0.0802824795879063 0.04120979407227465 -0.14577806302407761 0.18745309568170018 -0.14331211423939327 0.18832980423815268 -0.07887368640127196 0.0022341703151168638
97.525 0.12415740126226159 -0.02440078419904987 0.1660448217166833 -0.1617295615587821 0.1657077525421505 -0.1579210259351123 -0.13927963547292807 0.048499243254636344
98.02 0.052698728461211375 -0.035230487477545945 -0.18573697646999057 0.1390398985380974 -0.18949134094655856 0.13292232181666225 -0.13372009866766216 -0.027198397276390403
98.515 0.07949748952685097 0.03762024997301941 0.2039762419042451 -0.10695291185712985 0.20386774011395548 -0.10563195187547063 -0.07934828115504795 0.02759827782385445
99.01 0.13518690755860566 -0.01291379232657035 -0.20799849471042675 0.07382782499694353 -0.21380416654160642 0.06880127249855193 -0.1547237747263209 0.03102259947958868
99.505 0.06838669682369772 -0.040881681331670035 0.22056480169185314 -0.045965671616172495 0.22784258247110065 -0.04009771448150903 -0.10722485421208522 -0.02795580544793824
100.0 0.07162536562774607 0.03582538303167837 -0.22468580600143884 0.007369644874005332 -0.22852286601937064 0.007475246027684846 -0.0928508263181916 0.04582844493280794
