!Created with skrf (http://scikit-rf.org).
# GHz S RI R 50.0 
!freq ReS11 ImS11 ReS21 ImS21 ReS12 ImS12 ReS22 ImS22
1.0 0.35443150657850714 -0.25536401202972103 0.7721986404876913 -0.03220381531898436 0.8496687613202906 -0.10620567422327999 -0.0906794899972843 -0.26174588945616717
1.495 0.1301202102116963 -0.09245218775672778 -0.8307172973867077 -0.13046833261258783 -0.8297978517232244 -0.12917985029933243 0.16310612417168524 -0.08579454127552653
1.99 0.26971945610868275 0.12646823005602856 0.7203320535286026 0.3015533333574536 0.7929486583266855 0.26650414635182695 -0.10415113087104673 -0.017669280259614034
2.485 0.30896865072828 -0.07435590657451195 -0.6398116988104909 -0.3941004225763641 -0.6903401927611936 -0.35073280688111713 0.011899497863738583 -0.24572279661978316
2.98 0.022959983970633258 -0.07816633936788071 0.5744275348176785 0.5349043379150339 0.5616887131336619 0.5361760217586502 0.1190399637507801 0.025346011889237414
3.475 0.03884621539228252 0.13858413584452753 -0.45454419916549893 -0.6098297486536521 -0.4795598353500218 -0.6001374711492448 -0.11782384781653515 -0.0734884562342519
3.97 0.17794656827787902 -0.021320924121510616 0.3167334191328004 0.6744955404284785 0.33279732432650894 0.6397879784039168 0.10506303705606226 -0.1696958119909586
4.465 -0.037388855861944716 -0.18279875435268264 -0.16631773735710198 -0.7019322280329958 -0.14359649390010581 -0.717393308952914 0.040633676288547124 0.09160700793007709
4.96 -0.11506614463951066 0.002235123939885425 0.06881287588941642 0.7164256683099965 0.05925638102876385 0.7194101234303217 -0.08628590802518173 -0.11515021238023579
5.455 0.11094775791124416 -0.06210782344613943 0.10966302191744423 -0.7074003575109303 0.10599870234627 -0.6813466223664069 0.14526254086008705 -0.05344628749992272
5.95 0.04745730012724684 -0.27837152436570883 -0.23934478999454745 0.6096282891947344 -0.27695856042296446 0.6489862294257028 -0.04670539313277825 0.10244201027608663
6.445 -0.0958464786669387 -0.15060939465807205 0.32097773302326266 -0.5892277885723521 0.3427013286903951 -0.6032744952598088 -0.030635123092788204 -0.12673198286929238
6.94 0.13981550987968805 -0.07058035589216931 -0.4708560432728497 0.4876096772131456 -0.47213289914910994 0.478470499513821 0.11727107825801554 0.059132153924342803
7.435 0.19524730653580896 -0.24940600337052957 0.5117483358604065 -0.33851783907670685 0.5721781831579703 -0.38364963793714946 -0.11093816770429837 0.06260908931286897
7.93 0.013067995353308498 -0.19860521211887494 -0.5776603269576189 0.2796105598558174 -0.6026080238026448 0.29939173441373806 0.029787331819199004 -0.10381628827874788
8.425 0.14930449761844922 0.001766370224181324 0.641542313573503 -0.1292469292405021 0.6474511794242674 -0.12560319608548765 0.0435170965798781 0.1294968171608449
8.92 0.26669795895947873 -0.11481171442533623 -0.607010752971191 -0.0030202420699735454 -0.6725628921930847 0.023921232319843593 -0.12795878546585818 -0.0015563305378644202
9.415 0.07267490628646153 -0.15157871007742726 0.6244334610569909 0.10155206171035439 0.6440631556582664 0.08302042109218713 0.07539713252755724 -0.04505877220464869
9.91 0.05991561853802862 0.07415195150454104 -0.5973713209379972 -0.23105642350155758 -0.5939597478843295 -0.24319280141703753 -0.04038601674837946 0.14606572248263383
10.405 0.20763807361123857 0.0216143391586668 0.5243297367166884 0.325925295800959 0.5624779488642968 0.3198749585778512 -0.0972847116375211 -0.05428864597274704
10.9 0.04994402300765771 -0.11283683643929623 -0.45311572269338185 -0.42534402414540823 -0.4643502302708412 -0.41035830981858834 0.08610629678907748 0.03745119977583824
11.395 -0.07606415683774535 0.05172374943315223 0.37034555829815646 0.48632976385299403 0.3515905249449467 0.5076559649359769 -0.10704844162079731 0.12233307022202536
11.89 0.08095378321929453 0.07111003227742192 -0.2770863102369816 -0.5455089442248825 -0.2855980393690636 -0.5462250487344299 -0.0378067106046815 -0.06602518423291205
12.385 0.032683398119847475 -0.1356549044036789 0.1284308493873783 0.5800698252519854 0.1375147033629932 0.5698527858650136 0.04887388187212719 0.11868369447083256
12.88 -0.13638284365042536 -0.06366940499756775 -0.03804927111770869 -0.5692970324164465 -0.012497737355415286 -0.5940023518214059 -0.1444866471586481 0.07642791625951327
13.375 6.486535497634527e-05 0.029487492576848396 -0.06917673746728903 0.5861877114613803 -0.06887303128784193 0.5829957229293544 0.014968344540256416 -0.031033411495612114
13.87 0.08871808457027448 -0.16140910326495983 0.2184217680355857 -0.5178706839966579 0.20997958427426752 -0.5197659752890178 -0.02722131786098546 0.16749454915932993
14.365 -0.0729020442381571 -0.17478857193327424 -0.28265227573608004 0.4610605241348529 -0.3125997116547822 0.4867260592098644 -0.14910579272897775 0.025267442660945428
14.86 0.0009547517618708603 -0.0161628119552392 0.38514177677379474 -0.4247229933644272 0.3795161988776715 -0.4209471669362363 0.03448003089457849 0.03384650836804468
15.355 0.1711111167284947 -0.11356013338503486 -0.46163816565081084 0.29284178697805663 -0.4606194578021802 0.29697891844612645 -0.11287343141919506 0.16626888765581935
15.85 0.04153066872710896 -0.1909895662143753 0.4916940442662563 -0.21199209161562338 0.5236812213452886 -0.22905066621023853 -0.12410721439015664 -0.014305121924378734
16.345 0.013731206078053481 -0.006493750223277532 -0.5490456017315312 0.12586618459749904 -0.5397482334989957 0.12301903210909475 0.012586438684987567 0.09865729535143936
16.84 0.18599844920572514 0.0011976674678443422 0.5461579604755474 -0.0007853799870483345 0.5456507228040676 0.01069517528258524 -0.17424025361444662 0.12103734249604294
17.335 0.10601741514458701 -0.1231511354688748 -0.534047861064282 -0.0950288447152786 -0.5595295307541773 -0.09179321494409202 -0.07647139482608166 -0.025308043437964008
17.83 -0.02481513443222594 0.01849535124357379 0.5152835446756425 0.19173104773951502 0.5044967739078021 0.19761389362804532 -0.03927942693958708 0.14321510665265066
18.325 0.10721630191833932 0.10343055012005563 -0.4647244401194665 -0.27169140174429485 -0.45261715896320953 -0.30222533894745324 -0.19609074187874584 0.05894876712975752
18.82 0.09607460600185523 -0.05093973238957429 0.3981854489605215 0.3657264521559597 0.4125020311727676 0.3699778775533251 -0.03256700916663016 0.00039604002365961264
19.315 -0.08400987084674458 -0.011759450747233453 -0.306485204494022 -0.421513154807846 -0.30212127408751116 -0.431204783345548 -0.10485709738178262 0.15599047214627676
19.81 -0.007299011068925204 0.11749599096019052 0.23952823082410057 0.45606274668008284 0.21880585709196185 0.4889655458857053 -0.17815441461211795 0.0057741035278937435
20.305 0.0687933284784485 -0.03125264958667333 -0.1213805494740753 -0.5080596777729717 -0.13850239684544763 -0.514215348283601 -0.01792274507865108 0.05434388700534284
20.8 -0.08142589064454699 -0.09688122619402645 0.007309201158131436 0.4928657964233926 0.011750998414446259 0.5047478952096256 -0.1680852211776951 0.1363284622751346
21.295 -0.07108824481813365 0.04802559429310948 0.06150496444454052 -0.49398334329163124 0.0785820299544988 -0.5158717394418196 -0.13904133939753258 -0.020419882015316245
21.79 0.08196857419119219 -0.0355585704244254 -0.18904610238624234 0.4709692567690145 -0.16492098058880236 0.47644860070234324 -0.04440312631824792 0.10925445807718627
22.285 -0.0004011249085325749 -0.1596366607998803 0.27217042373445516 -0.39594929572319365 0.2643471202184522 -0.4084688064720243 -0.21174082919785997 0.08879159622443646
22.78 -0.0590353826380725 -0.022395914738688738 -0.33521269837435824 0.36219329254730703 -0.3424796328720057 0.3734807330409616 -0.09839799190179431 -0.016277416346373665
23.275 0.11293932914138398 0.0005497485543987003 0.41587298083559354 -0.2786006631945499 0.39065561010038097 -0.2817635304846303 -0.10250567135499511 0.1376586405583022
23.77 0.09919766932802888 -0.13135999803706902 -0.44944922008297716 0.18140700417078268 -0.44048216369677023 0.18252447917264508 -0.2241621813343496 0.028221913734820508
24.265 -0.020080576660434186 -0.037017116733370554 0.48342036561687374 -0.10907575732389603 0.4835986140842088 -0.11158724447838916 -0.07219690814209982 0.011434389794711444
24.76 0.09991805853989992 0.07678931261014008 -0.491670479548944 0.014979979183886723 -0.46900195262761396 0.005428845929562194 -0.16743799213889093 0.1282426621833965
25.255 0.14493062435402213 -0.03964697682908999 0.4803380581868648 0.07789413875115561 0.4691827000749503 0.09669347785999426 -0.19997381040427714 -0.024455379780084583
25.75 -0.00977517790657114 -0.021130885799830756 -0.4551887963068903 -0.1720561752620306 -0.4565348100435263 -0.1769547641108997 -0.06923564665367242 0.049905705908232185
26.245 0.028377991834914646 0.12766673858499725 0.4056486687130439 0.2355419632722277 0.38737541308780715 0.25736953449836564 -0.21255771369568577 0.08635094324937642
26.74 0.12147750172304488 0.04300425793106532 -0.3567816060983623 -0.3096719201120777 -0.342929712639294 -0.3402939121310001 -0.15374628192634768 -0.04894314139069426
27.235 -0.01892484306705125 -0.0335672416349692 0.2671644043751738 0.3831731578088471 0.27908910170369194 0.3923933715018647 -0.09500098169098749 0.08577188048716315
27.73 -0.05524605121842578 0.09835813790202301 -0.19379864387926787 -0.40185594891431947 -0.18123561520106904 -0.4238213842566807 -0.23077911674201315 0.031893638741666605
28.225 0.07113353601590659 0.06625001108704626 0.11669242717692192 0.44375272064325755 0.10673476819889706 0.4712040515933651 -0.10638757165326994 -0.037089407117940454
28.72 0.0025716071866402515 -0.07692558616417362 0.004681988192867587 -0.45209369674462313 -0.019693578367111348 -0.46429416887993197 -0.14078148699925 0.10084030082941808
29.215 -0.08592876971781654 0.014095500393111342 -0.07458013184371821 0.4319564491692468 -0.0774339659361507 0.44865606629927807 -0.21927788959970865 -0.019733947225790312
29.71 0.04772970065354552 0.05265694989215198 0.1605708825275647 -0.42554454022021965 0.16021564552951073 -0.4434480105838286 -0.0829911615505078 -0.00044913086601485787
30.205 0.07099635320542318 -0.09252770054600079 -0.25748647345075454 0.3664137543136089 -0.22852164845969267 0.3813915613924237 -0.1910426802613859 0.08485265223188003
30.7 -0.04275574516355599 -0.053883920724589106 0.3115199396984963 -0.3159866568147978 0.30481384843963066 -0.3240125507224373 -0.1872863036392359 -0.05599354345260495
31.195 0.05321831509434012 0.05843914778251458 -0.3707606074305637 0.2601487558181957 -0.363834980633275 0.27017159205828056 -0.09107713061287777 0.0390059262124424
31.69 0.1407186452611298 -0.0413171417900945 0.41077218798165166 -0.17442000045993317 0.3855777184289005 -0.17829419755700715 -0.22634456253605184 0.040549446407242146
32.185 0.023850503164812062 -0.05955792722629877 -0.43810831584746973 0.09738816128627557 -0.4265570277077072 0.09405033586018918 -0.1427020149464001 -0.068154566691322
32.68 0.04166632400937701 0.0873174322932636 0.4398450372617226 -0.016143624270008882 0.43594399426211766 -0.01634067411558114 -0.1236397608479281 0.06182538633781593
33.175 0.15705206138156982 0.0471608471431495 -0.42864853376887646 -0.05933329361894849 -0.4093096612346258 -0.07258831044739648 -0.2300312491543929 -0.01686746409208984
33.67 0.06009118826826365 -0.028095781355474705 0.41186619765685845 0.1513493556289786 0.400910634762117 0.1637859623021439 -0.1038103579868807 -0.05480328787940868
34.165 -0.004662088530692129 0.09490666934238512 -0.3577418175551493 -0.22122968933847914 -0.35932627541961437 -0.22844947462111187 -0.16278988603220637 0.05901966308360738
34.66 0.11111434755761788 0.10994931806809263 0.31179495693767034 0.2698939334850955 0.2946956008915528 0.29145411352188627 -0.20201695920953133 -0.06530351700362215
35.155 0.06399525579817432 -0.01190568378124208 -0.24531649753466728 -0.34653504584684247 -0.24195631763799696 -0.36247767641645395 -0.08209099948862889 -0.020132383686139423
35.65 -0.04976579548679567 0.04701702534268792 0.15864004431187903 0.3745676399134522 0.16899860074126222 0.3858990466077661 -0.1947095734668436 0.03353918218334924
36.145 0.045129574443023616 0.1120555415413775 -0.09845119841806883 -0.3940841966344443 -0.08399084073340699 -0.41190909837460726 -0.15581170920679005 -0.08864877797874432
36.64 0.0745235458975618 -0.019099103511184524 0.00014937555295698991 0.41696322165271665 0.005374525598993218 0.434091503253466 -0.090708367542199 0.017843115466667187
37.135 -0.04170281459767127 -0.027703613833952284 0.08513623218689072 -0.39667663430865713 0.06802549273570113 -0.40931709678968436 -0.21004128412019865 -0.006813660656228363
37.63 0.01293753049602155 0.07560642811010136 -0.1477666091473414 0.38203238152477725 -0.1549437423809141 0.3922965749007015 -0.11038228951405704 -0.0828020167235067
38.125 0.1126133152242296 -0.012367377877904973 0.2311447293596217 -0.3454186013780105 0.22370558359377518 -0.36128998358644693 -0.12277708392657911 0.039533953935095144
38.62 0.02349208463246528 -0.07016173024460474 -0.2909536254133151 0.29024757905196036 -0.2735692079293408 0.2991630022525701 -0.20123998103483282 -0.05127060049176385
39.115 0.02054725571894176 0.04952294029883478 0.3370090072973728 -0.23708370554084576 0.33995626726200595 -0.2410204727035599 -0.08038989092629924 -0.055088338137310656
39.61 0.1487866848336155 0.034114780388164 -0.3694938447937913 0.1665621210631006 -0.36933050503024595 0.17555426823991152 -0.1607925190850612 0.032885545830064616
40.105 0.09845351258339609 -0.054436707361498575 0.3946831099589561 -0.09496372099479303 0.38208730683403147 -0.09414497685271501 -0.16873531051718074 -0.0861811913513191
40.6 0.029097296715201084 0.047489578979033616 -0.4026364875901538 0.01237340541169098 -0.4045686827993277 0.0106586992059772 -0.07249437875476669 -0.019529449654890677
41.095 0.13609889174024614 0.09539545994818069 0.38081631084254064 0.05589113646813435 0.38600031915918853 0.056926090111892425 -0.18584396243168205 0.0015578007074837318
41.59 0.13078226234434648 -0.005858483923865762 -0.3689815118348068 -0.1294657164344874 -0.3589658583445159 -0.1371881634096064 -0.12208086446934062 -0.09919042050307801
42.085 0.0139436904005575 0.03841134103763753 0.3258670620816611 0.21145544508305633 0.33159648395932645 0.21505514231207956 -0.08620941367675733 0.009453894804477517
42.58 0.0765784838536628 0.12484672520366814 -0.2707825063030238 -0.2518885600540122 -0.2782919402533635 -0.25928731488962703 -0.18559115294939654 -0.03977108998841202
43.075 0.1219072088748961 0.029994312042757793 0.223485139924033 0.30999045983636536 0.21403838472394654 0.31839655066026373 -0.0766747825361366 -0.0836182626084739
43.57 0.002574719612078099 0.0013292361806190667 -0.14062992829669588 -0.3545596302702172 -0.1506047868748218 -0.3609897868896613 -0.11386963750718068 0.022439513589704817
44.065 0.015816725615360704 0.10075880738373731 0.0764061457966079 0.36361594357629173 0.08187209859042519 0.3699133171101522 -0.16131179998905867 -0.07419034630831578
44.56 0.10821326129289036 0.037484231781455955 -0.005018896126617411 -0.3817316894014131 0.0043193578747793525 -0.386658365833601 -0.05085237830303702 -0.04646383092408088
45.055 0.031587581575349216 -0.04659520924006056 -0.08179242872939113 0.3744783311475937 -0.07338017632849245 0.38287738324607495 -0.1418530075254396 0.014200151676333393
45.55 -0.0008099900813817742 0.042835883306230095 0.14289055817485322 -0.35199753185679433 0.13860343946191414 -0.3536425221908886 -0.12321006946896361 -0.09077869787366154
46.045 0.11673001125013487 0.041368047169143725 -0.2065714679876717 0.3203420168930032 -0.21889091309437594 0.3234553451319191 -0.05345649882279399 -0.005545284609476326
46.54 0.09754669583534616 -0.06139071129055727 0.26415675834598834 -0.2729940172005068 0.264428885576506 -0.27939443610912973 -0.15971889855047658 -0.012369376581474328
47.035 0.025978088703415156 0.0021913881496705345 -0.3102001689795032 0.22028697540251393 -0.3092054886313117 0.21846749139745214 -0.08257927837427931 -0.08524347676203853
47.53 0.12318288630114656 0.06376488660031446 0.33642115183907256 -0.151402867636628 0.3544964293298584 -0.15205111711684693 -0.07833364625155302 0.020931984348182473
48.025 0.1546329555209344 -0.027996851310477012 -0.35146382389741254 0.08792667883825783 -0.3636685084738222 0.09106027259791626 -0.1570043225398881 -0.04732216522506669
48.52 0.05620236504289745 -0.006707539800205059 0.3696371389881937 -0.012670039598166191 0.37113717116420125 -0.010937251954824418 -0.05060486743614462 -0.059499910757263505
49.015 0.09900352928312715 0.09345442906202676 -0.3472827411654017 -0.061483956620813296 -0.3689433784736937 -0.06276346948126177 -0.1089409050674732 0.02420040872487897
49.51 0.16513502800331822 0.02856203112550717 0.3274810319202419 0.11898855214393006 0.3413287142444639 0.11982380396893055 -0.12947696650472112 -0.07425244830871527
50.005 0.06552472567210756 -0.005494535732405808 -0.3015839378598905 -0.1964293031348631 -0.3049963977307368 -0.1955397838309709 -0.03750864281665891 -0.022917778262972453
50.5 0.04682412339387147 0.09387364410020167 0.24442193474926782 0.24650597395662563 0.263312342740864 0.2484447325525336 -0.13299130208114657 0.008246282217581762
50.995 0.13348494443626768 0.06529490241706871 -0.1988327894655348 -0.28474369308137376 -0.20651020640387693 -0.28404125454238965 -0.08984675539917819 -0.08091649279580747
51.49 0.0695576769768577 -0.01936100370854096 0.1338300642032533 0.3325042625476628 0.13524492439394808 0.3289603406349395 -0.04709281239639563 0.013496610984104828
51.985 0.008027105554954641 0.05030829732731002 -0.06382562813385306 -0.34679926511677955 -0.07592843987956764 -0.34655199989070795 -0.1390403220140717 -0.017597594429503764
52.48 0.10027952181013627 0.06558927930319389 0.003403215033168003 0.353607983657372 0.004862837290853671 0.3480877463871019 -0.052652429525453966 -0.06221092023046655
52.975 0.09722060969098259 -0.03989953527184721 0.06993545145731395 -0.3496603559726471 0.07602269010092791 -0.34593344862902553 -0.0732964876520223 0.03574281882910612
53.47 0.016362612095210644 -0.011368975039783154 -0.13342424498026983 0.3319831761877956 -0.13087277798662186 0.3277020723475464 -0.128369380575656 -0.04247944059485821
53.965 0.08971907877742856 0.050495300424210535 0.19045080285132163 -0.29849886616827004 0.1954980637985238 -0.28981394002361477 -0.03317670833256569 -0.026337537017709065
54.46 0.14100591369281024 -0.035337152424064475 -0.2370900195154243 0.24972234722693837 -0.25557078392725874 0.24657046763585824 -0.10636288959536919 0.036263846438257655
54.955 0.059775660124322824 -0.04719855813795889 0.28121062483062514 -0.20459836692874384 0.2897601731145429 -0.20135225336795723 -0.10277646845550484 -0.05677023096183369
55.45 0.08827322800834224 0.04762240386215635 -0.3134586363024462 0.13846507340648473 -0.3244960104618188 0.13220112143084348 -0.036626235845307546 0.011921586367828564
55.945 0.16843280257858087 0.004762335934767434 0.3194785006767763 -0.07348557367826307 0.3467108250576196 -0.07020706858152322 -0.12997715061916962 0.016426317015848537
56.44 0.10032565572174114 -0.04262467710136582 -0.3340513386541886 0.011899764115312232 -0.34934563269373203 0.01111728961903025 -0.07111100050839791 -0.053959843294734244
56.935 0.07017881495353054 0.05228555824720965 0.32629135232170364 0.0645868952429357 0.34031912160111033 0.06648362882738745 -0.05788980668397339 0.038772110682665076
57.43 0.15389422732220331 0.05460177645687144 -0.2981104085943108 -0.12000340864401696 -0.32448380601314314 -0.12339293933434554 -0.13310783802328421 -0.012232733539979376
57.925 0.11539290532790948 -0.022204194586654187 0.2769691551269648 0.1809366998075182 0.28988508293917825 0.1781585284487462 -0.04337844162353447 -0.031058935977413514
58.42 0.04010148688017368 0.038072132827737935 -0.23005384953024471 -0.23977058406805538 -0.2415579681923969 -0.23687801753867493 -0.0881292822903618 0.04895136665300106
58.915 0.10852292123325712 0.07573491936898188 0.1792744729770893 0.2709732772952243 0.1987114763486416 0.2724544599770777 -0.11524771922729325 -0.03416988669711273
59.41 0.1151874272487861 -0.01441358812122874 -0.12664396872705558 -0.30770592071148023 -0.13396142867860372 -0.30046464802152745 -0.03471562734632831 0.003561439387324961
59.905 0.026573400470810322 -0.006775967149767431 0.061948518463135455 0.3298067149602678 0.06561856920200705 0.3227261675684821 -0.11513913745775395 0.04140004273800912
60.4 0.06835268002823089 0.05676614836570854 -0.002765779867186473 -0.33225011625946305 -0.010673887995353057 -0.32747259273127205 -0.08852728096943122 -0.0395447040918324
60.895 0.12440988017903959 -0.017817618129173547 -0.06116970646911069 0.325128413782736 -0.06244534949562248 0.3158890081893463 -0.04764684556497368 0.03935888095752988
61.39 0.05020504509789957 -0.05531513125226986 0.11854780389742804 -0.3059193382668606 0.12685869859573987 -0.299604102348586 -0.13234295434216248 0.021462901429871374
61.885 0.056636878779760085 0.023194140496300128 -0.17402805799596618 0.27800848744647955 -0.17589187123649858 0.27108986214593694 -0.06268545692910944 -0.025648565162275802
62.38 0.14340604020862308 -0.007253759161915041 0.21998277232088642 -0.22804455643277943 0.23114262896566554 -0.22126264766511294 -0.07648459707906824 0.05966281543774446
62.875 0.09718256023133995 -0.07026539740592895 -0.2542927041003437 0.18302075221161396 -0.27232399105788113 0.17711893662935455 -0.13231334866470215 -0.0032477770794600434
63.37 0.06255432022811616 0.004230281108394831 0.291010223316634 -0.1283298625062713 0.29903579282928955 -0.1241326002165254 -0.04996953330342395 0.0006882287350760521
63.865 0.14643058884211432 0.026239146744191977 -0.3001398355528234 0.06007605168654585 -0.3174550142845951 0.05444655014548001 -0.1103334822988009 0.05954824980972278
64.36 0.13454967023496173 -0.04708448444856595 0.304839351966903 -0.00503216883585493 0.3264333802611844 0.00021338333487769086 -0.11522234726595529 -0.02152147615817072
64.855 0.06387122147590985 -0.00024099468421875876 -0.3081187563385168 -0.06252665777081486 -0.31621597107881444 -0.06230133068732862 -0.054399664922821 0.03080262011971766
65.35 0.11882250020103274 0.058546659891911726 0.27974052812144157 0.1220253774992002 0.2961232057596014 0.12683655875378844 -0.13509097264902123 0.041636134247143596
65.845 0.14109873487569105 -0.012540495732193312 -0.25405599866443246 -0.17109602868553722 -0.2737019017249082 -0.17495198241845789 -0.09083739467872783 -0.02436247092573639
66.34 0.05358924661656713 -0.013231340178833458 0.21928142457160416 0.22650767712945505 0.22624471833531049 0.22179077325641422 -0.07274193910761138 0.053810179173347815
66.835 0.07071401662744775 0.05794379604860683 -0.16999221446398766 -0.26138152672446024 -0.17841730268110872 -0.26224202792209067 -0.14292266733799452 0.016166426415210513
67.33 0.12485697583255588 0.004686271553968027 0.11945629639503125 0.28820225302575464 0.13055719715695066 0.2868385620108016 -0.06736963399533565 -0.008122045378209038
67.825 0.05568511316878445 -0.043805248354903494 -0.0618135024099495 -0.3070640948013957 -0.06360851759192927 -0.30077349095383293 -0.10202900640273295 0.06375921719848096
68.32 0.037079883942420094 0.023551287944421944 0.006326116252357659 0.31216624360841205 0.005585248345438487 0.31027517544320066 -0.13464181316762322 -0.005695155522634799
68.815 0.11357139658924208 0.004869687312392669 0.055021324663316815 -0.3024393645993004 0.05070435059030225 -0.3014516738730474 -0.06247033722440802 0.019472790272944882
69.31 0.08154155289647359 -0.06819131502543253 -0.10947844760751818 0.2799946596616427 -0.11414874085886362 0.27596236538520524 -0.1319768359452977 0.05651412023323878
69.805 0.0363408033893228 -0.018223783415472865 0.15945427318091834 -0.2579430091249842 0.16564932063859786 -0.2540217635627472 -0.11569194356339817 -0.016146938900962634
70.3 0.1112922507173086 0.009378260657193431 -0.20778304231132397 0.21191079114833433 -0.20822608082900637 0.211944113536598 -0.07557823896875693 0.046094706302119016
70.795 0.12181840367106879 -0.06269528068645587 0.23813747803485702 -0.16217733734906395 0.24838103648858786 -0.15974698381306912 -0.15139984699948156 0.03428982307914352
71.29 0.05667856864136428 -0.03852151632330009 -0.26915410364457243 0.11664837578030902 -0.2782437416670225 0.11441104333506401 -0.0955867990831208 -0.012647116923438475
71.785 0.10409158282302074 0.026508290659179413 0.28800799813039596 -0.05283990555904699 0.2897000159094074 -0.05384207097771346 -0.10192729959137088 0.05992706265407372
72.28 0.14417869444493925 -0.027535843056105045 -0.28462286931894715 -0.003696782096119098 -0.29633837319950634 -0.007784890343650388 -0.15506030087123857 0.006638447105754306
72.775 0.07277982104824002 -0.03845089122298628 0.28685743560968996 0.059592921111472366 0.2954239028395533 0.06116488923775998 -0.08284881639898008 0.003129655508265055
73.27 0.07638444618252792 0.03844418239516213 -0.2684944573091791 -0.1191577086722401 -0.27072727290207177 -0.11808533847577504 -0.13120498266317285 0.05689852664500289
73.765 0.13409262861449434 0.009538244985627858 0.2394122809013156 0.16533115645230215 0.24726642777823818 0.1715038085854381 -0.1407732612772708 -0.015036458486184444
74.26 0.07587159738049608 -0.03887550570835358 -0.2079663582348847 -0.2117304912140144 -0.21306487101383031 -0.2125340894058707 -0.08150996604331436 0.025193059402836365
74.755 0.03939075227063214 0.024008309910375926 0.16475989425665524 0.24721078538606142 0.1613220741393553 0.24588052048211173 -0.15229489535768106 0.03941751747868154
75.25 0.10349958037040184 0.02439977882760685 -0.11524900172855622 -0.2703831535634626 -0.11570747773751043 -0.2764593914210621 -0.11765706975013311 -0.021590202482790765
75.745 0.07957779874483897 -0.048436947598424804 0.058898728301046 0.2846526152198387 0.062046881274657587 0.2883545438050953 -0.09677272532460987 0.044845950736110654
76.24 0.02128734563837284 -0.014363789433955986 -0.007862170706771317 -0.2893085696160949 -0.0016214088262812884 -0.2897851995608948 -0.16050672726958393 0.014811689541451093
76.735 0.07797559611759293 0.017835491718917632 -0.049149236572327074 0.28364569035383735 -0.05155547027712354 0.2896078120756066 -0.0982483511173357 -0.011974409703174612
77.23 0.0995743787927223 -0.05344253188110386 0.10527601502941003 -0.2576644693312484 0.10344020793938015 -0.2651499317920312 -0.12193721851020425 0.05194445381309859
77.725 0.035401464476554796 -0.04998678820242991 -0.1488580137605532 0.2335078285342955 -0.15496062258943757 0.2365257169399784 -0.15521972243182197 -0.009040183028885183
78.22 0.07100523360835978 0.009717523734309877 0.19588747813738155 -0.19872905445742722 0.19798052890072015 -0.20599827940776683 -0.09086150272121742 0.007283915849050579
78.715 0.12316297557491299 -0.035788808232828415 -0.228058287299369 0.14646879586348793 -0.2282572045076355 0.15590126986035124 -0.14787058775286818 0.042255826157269576
79.21 0.06747515527050639 -0.060925479386588724 0.25233800777518356 -0.10324425199633377 0.256830573056374 -0.10570064502759693 -0.13805697908479647 -0.024938013008707356
79.705 0.06479243703424965 0.010329181506821685 -0.27424055193902724 0.049641376235244894 -0.27306584737339934 0.05563636611502105 -0.09818788587089627 0.026191488895276865
80.2 0.1299189082002911 -0.0006905533075943556 0.27301510795581974 0.00832415141268695 0.27140785103830056 0.002543739540079112 -0.16469519032649188 0.019076189832972674
80.695 0.0897114583157584 -0.04889868103956177 -0.2699562423694512 -0.05856377489372159 -0.2712849583607801 -0.0589216451421897 -0.1166993151405724 -0.02779803899351953
81.19 0.047972660785157335 0.009735288127608831 0.25816326686044583 0.11177546954618876 0.2542386878384177 0.10851804864452963 -0.11503201723328346 0.03626600663251116
81.685 0.10574178499181652 0.02978731067329501 -0.22989101205718807 -0.15647638595072863 -0.22401460875388188 -0.15690653074481797 -0.16315088800847813 -0.008418103151695316
82.18 0.0928036516797927 -0.03370197652039247 0.19680496980376772 0.19768706897102523 0.19331388650878273 0.20195474612989478 -0.09902198606156166 -0.016575059037187156
82.675 0.027727539276060226 -0.0076909894698166375 -0.15559908194993893 -0.22861307325777677 -0.15074191258593836 -0.2317362300361459 -0.13705094575951382 0.034434974989163536
83.17 0.0670516093722585 0.03511119593022806 0.1110005850013866 0.2501510870157225 0.10086031066374691 0.25662008208586573 -0.14873523244787887 -0.02933943134376993
83.665 0.09154912504405811 -0.027694808434943447 -0.055621936803634725 -0.26600158646617855 -0.052311478750765784 -0.27645155739105226 -0.09390323807383837 0.0031556369650163596
84.16 0.026022655805644265 -0.0387440872503074 0.00383282351943733 0.2657353109544368 7.047788542076211e-05 0.2744688888067754 -0.1540833792271039 0.020187006212267874
84.655 0.04211333877342645 0.017705632551157365 0.044925786270705856 -0.2612191762385261 0.054482057170253374 -0.2699263140116192 -0.12648843248612926 -0.03699703355269125
85.15 0.09840845707899656 -0.022952928892464208 -0.10212741092260447 0.2422152244732719 -0.10375637562529602 0.2573806401040938 -0.10418176868257951 0.021221392337240637
85.645 0.05129341187756239 -0.0614539270981526 0.144689589290899 -0.21299664158637582 0.14618124121543685 -0.22560226517597073 -0.16182574409961684 -0.0022402185779609673
86.14 0.03970026390709801 -0.0024741879757346863 -0.18480946509702964 0.18472280133926083 -0.19083646171576568 0.19437446569039576 -0.10598566701904377 -0.03098936507859569
86.635 0.10636239569068397 -0.005903530145130862 0.22145111632439876 -0.13868989564383685 0.21955167521188218 -0.15319510278125648 -0.12237412136527062 0.027457790880193338
87.13 0.08484926797375895 -0.058028235157636235 -0.24150203154316727 0.09221043531538023 -0.23966016105456042 0.10345539275172168 -0.1551342293917582 -0.025929612384868336
87.625 0.04349100995961805 -0.011067083297375768 0.2601096958959616 -0.046896071825489875 0.26031015071127533 -0.05353004541782776 -0.09434082669949383 -0.015844462267507062
88.12 0.09897920398042565 0.02118809232092232 -0.2642272456390994 -0.006862019143853143 -0.2589506408590971 0.003582083137358328 -0.14266982891959587 0.019312115322235698
88.615 0.10300076402189624 -0.03339188922199151 0.25685079807666134 0.0558679209451915 0.25079966403455606 0.049962555205955765 -0.1363951013430041 -0.042303748286377334
89.11 0.040035993617425984 -0.01368701127619172 -0.24522871094435555 -0.10362138688202446 -0.23963096655761398 -0.10169374492887374 -0.09392596155941574 0.0016703258641785268
89.605 0.07006630166919277 0.039823090851053004 0.2199242540763003 0.14452870095068562 0.21187216875669235 0.14242293494587602 -0.1531047315153041 6.24051337694446e-05
90.1 0.09967290140128676 -0.007526635607942665 -0.18717863771589927 -0.18319434780060728 -0.1770049991138434 -0.18422635747208804 -0.11155971977091163 -0.044517685579354906
90.595 0.03609784261214794 -0.024701313429323222 0.1448911232496447 0.2137452756634243 0.13968913611510655 0.2191188746908706 -0.105253517032744 0.01456122886193566
91.09 0.035845451192618505 0.03275591573570554 -0.10322603570683803 -0.23191871546424558 -0.0942615189386253 -0.23716225420875045 -0.14967865518222911 -0.02190556629796864
91.585 0.08736779677854785 0.004576977394025155 0.053030216055831525 0.24818850517611274 0.04319339960519324 0.25496993324117684 -0.09129786436370371 -0.03209880657339855
92.08 0.04578215732867043 -0.043163565696269425 0.001852027842953829 -0.2480501538565066 0.004891639508254983 -0.2607910838637631 -0.12237020194648683 0.017189652464103495
92.575 0.020302540423093266 0.0059026536043692065 -0.045909137427195136 0.2417635994358642 -0.05270271829010171 0.2503765068165793 -0.13650225828895288 -0.03910445912856942
93.07 0.08131325158731303 0.007791683240284767 0.09756311170122942 -0.2291087975884855 0.10465747136870024 -0.2392596206262943 -0.08353985633063471 -0.011714733225293456
93.565 0.071694896977339 -0.050725762525005415 -0.14288821273080618 0.19935929830321236 -0.14375026356563125 0.2145731608482378 -0.13811798832941707 0.007507611793113878
94.06 0.02874695902101402 -0.019794995207981694 0.17747584900297314 -0.17140877964041604 0.17998511975967307 -0.18038924708386128 -0.11608052233406775 -0.04590286811209512
94.555 0.07957194910881175 0.016315780408983915 -0.21198437772097883 0.13361497814982948 -0.21446042828539996 0.1425622002863515 -0.09132188802349882 0.006674495942950116
95.05 0.09939256909222365 -0.03541025982496934 0.23264227730789702 -0.08688175126876622 0.23201620613806329 -0.10076306650169517 -0.14480270795823666 -0.011341793030199774
95.545 0.04491370812950307 -0.027819997149611888 -0.24723692077381462 0.04410378191007305 -0.24568269640271315 0.05108825972318304 -0.09365939082053118 -0.039710846131453675
96.04 0.0682668632010236 0.030998198357086712 0.25239890253023356 0.002902117112935997 0.2510428356968953 -0.0020555870707535165 -0.10643650702877089 0.01529182355738769
96.535 0.10793808332735405 -0.0031558366848374155 -0.24547009537836492 -0.04965984177751604 -0.24157435511713657 -0.04290770772649777 -0.13806787817264563 -0.031643665713902404
97.03 0.05489309775296744 -0.02439229667492871 0.2311668799631963 0.09580681270214415 0.22703088642081104 0.09381741591767308 -0.08005508418334088 -0.02408306527837587
97.525 0.04417314130876307 0.03605473396159798 -0.20584329725606795 -0.1337762792652338 -0.2035873882087495 -0.13505677214469805 -0.12273477232764408 0.011826894920173048
98.02 0.09535672550135733 0.024119169052114073 0.17581125018740362 0.16816422878405768 0.1705157802358426 0.16844119502213262 -0.11914051821098538 -0.04408299260776154
98.515 0.05819089310090604 -0.02382097828686286 -0.13457969841289077 -0.20077334579364378 -0.13096898436488974 -0.20417600512470252 -0.07726922368183038 -0.0035002624850466145
99.01 0.02193117228693769 0.019092305672823592 0.0917470119036288 0.2173296971688011 0.0903021125899292 0.22454502462483766 -0.13206894388856721 -0.0010746040115319753
99.505 0.07309843404308519 0.03159161853291943 -0.04898252175153186 -0.23251403509453436 -0.04307153496775455 -0.23470899710286364 -0.0955835493453185 -0.042665467925320735
100.0 0.06903756388620842 -0.028913033641659168 -0.005289880104853839 0.2362299675820439 -0.008354081847000946 0.24173519710695582 -0.08722932827401907 0.013529928095687038
