!Created with skrf (http://scikit-rf.org).
# GHz S RI R 50.0 
!freq ReS11 ImS11 ReS21 ImS21 ReS12 ImS12 ReS22 ImS22
1.0 0.5139139652396105 -0.7193028028416079 -0.0004035695721301622 -3.284951938160247e-08 0.0010809836602822876 -1.2448795598600765e-07 0.2958033115773418 0.7978215168167752
1.495 -0.8132117182948333 -0.15711198897158976 0.0002593803556058598 1.1089255973608301e-08 -7.547221859260418e-05 -2.688391728740381e-09 -0.8579687804014917 -0.12442281473045361
1.99 0.2555216764939779 0.7940755735154645 0.0005781260865744676 -1.663043231426515e-08 0.0001649480370332017 9.533232129839746e-09 0.5425673164194491 -0.5644476961675391
2.485 0.7576728684433242 -0.34441525438928 0.00035654051014186665 4.5087525771094244e-08 0.00020225129736941354 1.0015137248906494e-08 -0.243270143352673 0.7640135723441128
2.98 -0.507388197536264 -0.5868720986300073 -0.00015693290333528554 -7.421017389563078e-09 0.0002711394010779804 -2.8518699727334068e-08 -0.6347408836907922 -0.4997191232051546
3.475 -0.20902782246840804 0.7409180455627451 0.001311313415576109 1.2081399020976117e-07 -0.0010848172165286935 2.1623911740308052e-07 0.7102966225319728 -0.010467802337287235
3.97 0.7937001766186882 0.061328364409855056 9.319601119959906e-07 8.350211122709548e-13 0.0009395799363623693 1.411881459354078e-08 -0.604376404050807 0.4941915556307127
4.465 -0.06511178331209541 -0.7472964411125633 -0.000837736196240356 3.661694459018086e-08 6.844327982879789e-05 1.8084873516780366e-09 -0.24494132050954992 -0.7041929140150608
4.96 -0.5666032335020509 0.43759797461412026 0.0007579356535956992 -5.5092884519067076e-08 -0.0007332503945694832 4.1106064134566025e-08 0.4804449974394148 0.4787294058637552
5.455 0.6341144554582153 0.4180243754939053 -0.00015900379279667717 1.6617711498878224e-09 0.00021761073964634807 1.6020910907489314e-08 -0.7511941629353921 0.12219126764445472
5.95 0.3448243818788567 -0.6513061080833507 0.0008769561273469682 -6.555886477312903e-08 0.00011469082728230841 -9.892978186539228e-09 0.21021158539622306 -0.6413220422647377
6.445 -0.6746272244144251 -0.012266858536454907 2.3846139433861577e-05 4.815871537372255e-09 0.00041120035840620263 -2.5568261575265624e-08 0.0437215416261405 0.6776319211769389
6.94 0.3181528850345555 0.6438614214651853 -3.2226694817165045e-05 1.3634356833775265e-09 -5.7359538140781425e-05 -3.80382029101236e-09 -0.6876842948740516 -0.2492095941837391
7.435 0.6173195521953244 -0.3819407230413302 -8.184944936860624e-05 1.9388252647949823e-10 -0.00028815629949529355 -4.707070572952979e-08 0.53745925341369 -0.294490493708644
7.93 -0.5031796951508242 -0.4203860948248272 0.0008208857140569564 -9.465677982987102e-08 6.120841899761575e-05 -7.071845197439732e-09 -0.36454561744814706 0.5837567518500166
8.425 -0.07610610052195384 0.6679037479909127 -0.00021821022609196718 2.607231000479729e-09 0.00037253235553038765 5.702763014860992e-08 -0.43812214526210824 -0.5299721932611264
8.92 0.7101011769287205 -0.03581938426584108 -0.0006726043131551986 -8.602055149519046e-08 -8.702063278991264e-05 4.174777544871077e-09 0.5506897889931553 0.17963968530176613
9.415 -0.1513433763681122 -0.6348203055054058 -0.0009981979219549867 1.0019685317059137e-07 -0.0007127993634651156 -5.894668285080367e-09 -0.6182163643295139 0.31105283731780603
9.91 -0.422513064684942 0.46277020821045906 -0.0007291267167240204 -7.221790315507123e-08 -1.2981644504454766e-05 2.34644740957618e-09 -0.060708537401548746 -0.6265250423191028
10.405 0.6187891390400122 0.2987103079676413 -0.00014337851872306742 1.0739853586844616e-08 -0.00028885960471060806 -9.820710566096467e-09 0.26580320831559456 0.5202454517373647
10.9 0.22626871434525123 -0.6160393915702115 0.0007779231956181475 8.475993812903468e-08 0.0006345481338385243 -2.8171779324730358e-08 -0.6808527274492616 -0.029139611774084365
11.395 -0.584780740858191 0.09266114314582359 0.00019859151044300264 -1.693773854191524e-08 0.0005254825150171236 -3.219573723800458e-08 0.31634316725991574 -0.46631065528764165
11.89 0.3710603150347796 0.53949512847112 -0.0002123196960958912 1.3968581660663093e-08 0.0007041747146118483 8.576977437407824e-09 -0.12635398247639287 0.5964434041997277
12.385 0.5113117181471339 -0.41491791284985363 0.00016215643234677684 3.6056326000505557e-09 0.0004682909044326403 -5.971075849988555e-08 -0.5555966149591918 -0.34186353666400404
12.88 -0.49862016534788844 -0.2918654708217036 -0.0005697399952624047 5.319581693507826e-08 0.0002261081167372234 -2.0995977042744e-10 0.5063315650306288 -0.09143432435368302
13.375 0.027210058138727032 0.6113166828785063 0.0007784710179141465 -4.2147482718729844e-08 -0.0007379706185995105 1.2950124861211917e-07 -0.44904569932918814 0.4429795016300306
13.87 0.642633859334619 -0.1145107524609425 0.00038969813331430936 -6.112064220538064e-08 0.001036527246869827 9.102067647667149e-08 -0.27451214256077905 -0.5380396068042543
14.365 -0.218894096077809 -0.5397336122223596 -0.00026494911761519596 7.391595599378778e-09 0.0004498211409212323 3.503753393897065e-08 0.4049130724614298 0.3069082879017007
14.86 -0.30669696368996135 0.48004238551515227 0.00021418870077486587 -8.545916947182416e-09 9.536751797587203e-05 -7.336618730132639e-09 -0.6153941430546054 0.16153851060549623
15.355 0.6042598250899001 0.2000312265548599 -0.00010075762934880558 1.0886299366602253e-09 0.00015969384578459463 -1.2149124014783798e-09 0.08386611250547193 -0.5351455723121032
15.85 0.1270406306862207 -0.5819248394356731 0.000425368435978419 -1.3579945751425518e-08 -0.00025522275336266776 3.7505927810572e-08 0.09196707315627745 0.5281777953939297
16.345 -0.5064379370951289 0.17603601578130998 -0.0005858970850292805 1.5281506418480517e-07 0.0002517696606864271 1.0271266942050046e-08 -0.6051283137366164 -0.14994575060642776
16.84 0.41175023290665486 0.4486519610552687 -0.00044960335201070175 4.8397120215173154e-08 0.00026995709781740454 -2.9475891471242006e-09 0.37530608119935066 -0.30032905786475156
17.335 0.4179523753421745 -0.43902818512214675 0.00026198954073698824 -6.838854464107301e-09 0.00019099524910844018 1.3679620671411651e-08 -0.2547848929289453 0.5098123025432907
17.83 -0.4871358197922584 -0.1826392479868997 0.0009169792657686898 1.8174067359236224e-07 0.000640665762321254 5.271650344334298e-08 -0.42809643172817824 -0.40489402552890874
18.325 0.11261646069144145 0.5593992355800114 0.0006670207458014219 -2.2327735583387263e-08 -0.0003997054583324058 -5.977369501459199e-08 0.44527909556518436 0.07155368914732282
18.82 0.5804927089972383 -0.180444269157662 0.0003667024365616826 1.1864618722555076e-09 0.00033603405901369066 -2.0458327218555483e-08 -0.5019232680092349 0.3135376081248868
19.315 -0.27145236794954664 -0.4523716170649042 -0.00039644597424547134 -1.1669206432308351e-08 -4.764176990035181e-05 3.819564466352629e-09 -0.12858041646606636 -0.5182560858542115
19.81 -0.2055538604579359 0.48722608869709766 0.0010024213535105016 9.441514486632014e-09 -0.00010476872095514741 -7.870371600718082e-09 0.26151418411854255 0.38650470074536086
20.305 0.586787059492961 0.11396809439426052 7.376132519270234e-05 1.5494077744517444e-08 0.00020582434927452183 -4.9370202693032944e-08 -0.5926623657298365 0.03257854730125026
20.8 0.040820804456495795 -0.5432162106043912 -0.0008372488164401671 -6.610378049473642e-08 0.0004015939212188231 -2.295100710718313e-08 0.19381329410621723 -0.4277145022391131
21.295 -0.42827060286210866 0.24126707978834427 -0.0005437816522292543 -1.8835684860764426e-08 -0.0004495894383717398 -8.215818127442702e-08 -0.054785297449274024 0.5026520156063347
21.79 0.44256864042339356 0.3668935266483714 -2.3006617781448342e-05 -1.5245429324705625e-10 3.8222491582323026e-05 -6.22473787303876e-09 -0.5196281718146076 -0.24562869814033284
22.285 0.3312695500617725 -0.45297419516004783 -0.0007971632122932274 2.2824220983778714e-08 3.8682295792538446e-05 2.2308959010467305e-10 0.39196240719987324 -0.14384530756114888
22.78 -0.4673786040415029 -0.08700261155091107 -0.0004049966692245678 -4.1700419900333806e-08 0.00012848190851353107 -5.787665218666896e-09 -0.34960145966814415 0.41452525693142706
23.275 0.18460246054240112 0.5080514525496116 0.0006082447162868047 4.92376804104731e-08 -0.0011702859691548066 7.533124667986206e-08 -0.30130644462645867 -0.4383191149703688
23.77 0.5189729656966723 -0.23555145009891462 9.423197190082651e-05 -4.73760175118307e-09 0.0002527479108764117 1.5402201738409183e-08 0.35763788135494945 0.19777837819277622
24.265 -0.3103613026572555 -0.3679714422766885 0.0005623506784379496 -8.072802919785199e-08 -0.0005334126348894077 -1.3578565967079771e-09 -0.5269002764003705 0.19183669350226315
24.76 -0.11531931725203139 0.485259031485649 -8.253278044262526e-06 7.506306887921321e-10 -0.00030353768383239814 4.629177814544495e-09 -0.0007977403414615847 -0.47054967990846824
25.255 0.5645367540107781 0.037267264283840335 -0.00034783342836368163 -2.271195048502131e-08 0.0006935062209006894 1.1087718241033109e-07 0.12396469020130767 0.42593263223588407
25.75 -0.03405440655365586 -0.49926345808694544 -0.0005061906626457682 3.7442868533737e-09 0.00034494058742098595 3.168180421659587e-08 -0.5517906680858283 -0.07899313861025836
26.245 -0.35519413624286666 0.29416345458465826 0.0004316037530393538 -5.4237704185319285e-08 -0.0005648400400126551 2.3909764526748758e-08 0.26795054495659726 -0.3066400892621117
26.74 0.4637112159360463 0.2902262978575934 4.9009601036663044e-05 1.5961667476235768e-09 0.00012539170816591876 1.5502576241336615e-08 -0.1764862719973576 0.45615699156658673
27.235 0.25041378716993506 -0.45738327656594546 -0.00015206761116315072 5.934846945482091e-09 -0.000293071819597403 -4.764871566529833e-09 -0.42292627476467165 -0.315461492018547
27.73 -0.4384230797814876 -0.002303979408015515 -5.087679691935759e-05 1.3457034287019024e-09 -0.0001124279029421599 1.6113761834201726e-08 0.37041572630023706 -0.0027280770858735415
28.225 0.24409637415124996 0.45339239590081326 7.547401041262964e-05 -2.8983616143975823e-09 0.00020032403693981708 1.1177609091551638e-08 -0.41585969552240715 0.31507898866516176
28.72 0.4560667801124782 -0.2798703789871982 -0.0005484573169530193 -5.6408688315866056e-08 -0.00032310094738440665 -2.9003218091725698e-09 -0.17870089061907737 -0.4427930211817851
29.215 -0.3355701420039887 -0.28540288066816955 0.0008366860490452196 -1.0593173149617924e-07 -0.000342014311085335 -7.61853996154936e-08 0.255672792636435 0.28911243104625467
29.71 -0.033879159114800425 0.47354640129844505 4.208193462743765e-05 -5.485722569590615e-09 0.0004600506642989839 2.8104333897573678e-08 -0.5275710514232661 0.0791363820504427
30.205 0.5347391821330572 -0.031263243193131875 -0.0006162560848295305 -8.21339476956303e-08 -0.00040829257383946074 -1.1435723778144598e-08 0.10484848482015269 -0.398968390126472
30.7 -0.0983807313997027 -0.4498028082038972 -0.0006436389890848831 1.5727873901660886e-09 0.0003773717466384173 -3.863829035569426e-08 -0.003144424674048116 0.4311105975719934
31.195 -0.2806383688766129 0.3320129325852665 0.0003781931621204968 1.6122884897393752e-08 -0.00010852661631900585 -4.336913843825858e-09 -0.49153552726218325 -0.17172256558992685
31.69 0.47558760063092814 0.2176909948552336 -0.00013586348512039889 -1.4668855526250414e-08 0.0013584133524800646 -5.171098959149772e-09 0.3052584633903484 -0.18021046125339968
32.185 0.1744757194587038 -0.4523924884769884 -0.0006417994278436073 -2.9393747585819842e-08 -0.0002829317291259142 -1.4929358154272002e-09 -0.2732353285543749 0.39102548958349403
32.68 -0.4019436666209876 0.07169228511916645 9.942111765111202e-05 -9.516064585432567e-09 -0.00047316622752949466 -8.900135246847822e-08 -0.32087176665504186 -0.36102551378551706
33.175 0.2940608322873377 0.39901038771737113 -5.0519656523657774e-05 -3.7728339427775925e-09 -0.0005123099561685638 -2.461348337926566e-08 0.3192970582746767 0.11680762466848287
33.67 0.3937335136051719 -0.3151855571409627 -0.0004805603073751047 -2.124645064802474e-08 0.00010355977465054781 7.913461441872236e-09 -0.45610256197869425 0.21430881804177415
34.165 -0.3499294746729175 -0.20707579306281776 -0.0009775073884936598 -1.5289054978129114e-07 0.00034029500703430115 -8.311144553772703e-09 -0.06486662784866287 -0.4197735533338912
34.66 0.03921413843572196 0.4547981542568834 -0.001003190974378667 -6.57475226444383e-09 0.00012014568125008653 1.610711304374113e-08 0.14510559276168492 0.34462809243917353
35.155 0.5027982670580238 -0.09210888305308171 -0.0009178172042668488 -2.9697385329961683e-08 -0.0003874288210967754 -2.8465015279657627e-09 -0.5065520745563853 -0.023028463598085212
35.65 -0.15262660509087855 -0.39721074116728294 -0.0015267340330370118 -7.828009867907765e-08 4.054367927871394e-05 1.279705575329191e-09 0.1835971604040296 -0.3070398493545025
36.145 -0.20874304845640396 0.35866764050500305 1.911447392796065e-05 6.445177657310184e-10 -0.0003882386318019552 -4.032125977568274e-08 -0.11561666987786318 0.41036659372738366
36.64 0.47897724426869875 0.14931635559380194 -0.00016956357139386345 -6.452836594701238e-09 0.0001875331562701799 -7.27504911669453e-11 -0.4180869010204128 -0.24506783666522228
37.135 0.10429963358350967 -0.44007039272754045 0.00039521436179516784 -7.136540155972857e-08 -0.0007325681208302081 -5.1375022490010164e-08 0.30860770897884404 -0.05804063913084495
37.63 -0.35956851866799217 0.13549845300978097 -7.774427118544997e-06 -7.742051545937615e-10 0.00015439123651272944 -4.954818899569568e-09 -0.3463352250293928 0.3141158188326661
38.125 0.3325526738390544 0.34158509485210947 -0.0007120178347016608 -1.211938142079649e-07 0.0001372365761440969 -1.1990837909280809e-08 -0.216988966023219 -0.38157768154369726
38.62 0.330908126913302 -0.3409850641867538 -0.0002875728694458753 -9.120616775320585e-09 -4.30009700852981e-06 -5.978862229075859e-11 0.2451389624109107 0.21020072365338033
39.115 -0.35286170954639046 -0.13218743180389791 -0.00010473063601700045 8.57343544493464e-09 0.00023177949423649295 7.153754649197184e-09 -0.47253611113490057 0.11560294831718594
39.61 0.10433278509260753 0.4286365286051954 -5.70757199225847e-05 -4.2255185162211355e-09 0.0007114871896073757 -1.0222323638945839e-07 0.03475494049489047 -0.37257295731594015
40.105 0.46344172340060263 -0.14497101239025584 -0.0013056081632187428 2.750833862290549e-07 -9.259408473730081e-05 -5.848696281224593e-09 0.03563009454435044 0.36901711669808057
40.6 -0.19647315817125727 -0.3404061399966926 -0.0004633300787470387 -1.553864519722898e-09 -0.00020204108798773597 -8.753866704403644e-09 -0.46697563808113207 -0.11220249597951075
41.095 -0.13911330691093365 0.3742696278283229 -0.000669115249209656 -8.41368199224028e-08 0.0005180966067990951 1.8883851948291072e-08 0.23378170707207643 -0.20530234842692807
41.59 0.47468272729642275 0.08529357303234476 0.00030608604326109437 -1.8148852726315517e-08 0.0004139452522469956 4.504732259443082e-08 -0.21025111302617036 0.3666842054985337
42.085 0.03978149285179342 -0.4198568009346769 5.409694829500036e-05 -4.689373138879073e-10 -0.0007040006617119039 1.4613139921546753e-08 -0.3359840010389828 -0.2984513544999548
42.58 -0.31148817750517743 0.18891228124792364 -0.00045104425607879744 2.219099245036525e-08 -0.0003132122248696929 -3.507266970330815e-08 0.28232884714863665 0.05237965635559789
43.075 0.36374489058097687 0.2855267355402391 0.00029289839657748785 1.0825213536362515e-08 -0.00012077958279082817 -1.6412628188638496e-08 -0.3958072241415062 0.23017685255628612
43.57 0.2685903623936988 -0.35788753153347785 -0.0006477955109108807 -5.363660615642039e-08 -0.0004619613796791262 -3.892901550770392e-08 -0.11537791537250594 -0.37591788704054213
44.065 -0.3456564098097992 -0.06184267222740448 0.00046289201063333147 3.6094512327862674e-08 -0.00011697924552846765 -8.854783681790009e-09 0.15796602284159397 0.2763000909845084
44.56 0.1615672795510405 0.3971481945525707 -0.0004973377595454488 -2.2398322462631257e-08 0.0001088853770569069 1.0748726613136352e-08 -0.4675863747855067 0.022303033455570165
45.055 0.42262225165710954 -0.19106312225034316 0.0007021933047599293 -1.1787839162397394e-07 1.8092508292813213e-05 4.653863890153071e-10 0.11492745862353954 -0.3039228625777606
45.55 -0.2295937124478854 -0.280516102500193 -0.00039157207892412334 -6.508151499940055e-08 4.854984054686259e-05 1.4441176461057795e-10 -0.06682596680488857 0.36689629922396316
46.045 -0.07264537537929855 0.37987710557155036 -6.67171378771456e-05 -1.878367142877449e-09 -0.0005109870272566356 -3.577367531649768e-08 -0.41231602718628535 -0.18647671235018443
46.54 0.4627785643306519 0.02554361232667542 0.00013515308601392588 1.5988762874999254e-08 -0.0006124327101107186 6.636167982772227e-09 0.2540863994392704 -0.10016401949737629
47.035 -0.01868388520896531 -0.3916434842253545 -0.000318647817563849 -1.4885099740328408e-08 -0.00020295631467694513 2.8588004451240453e-08 -0.28673606268324325 0.3093099929600009
47.53 -0.26020322066167834 0.23225201483043564 0.00043998782132290566 -3.154147619081242e-08 0.0007928158849817476 -1.0778455015418132e-07 -0.24642495102639037 -0.3286011887049232
48.025 0.38583616248078 0.22895449386491865 -3.441911580353111e-06 -3.592508307594508e-10 -0.00021968748813458385 -3.687836104996216e-08 0.23140667841229196 0.1448710707043979
48.52 0.2077370980760314 -0.3664647260653264 0.0006096875701840296 -1.6843591814191237e-08 -0.00016455696062016967 -1.6516736173870175e-08 -0.42349919505818834 0.1440351590029366
49.015 -0.3299747308534448 0.0028019158128251656 -0.001144258392289314 -2.584642879162294e-07 -0.0005783469400624772 -1.705575478834821e-08 -0.022528294970608816 -0.3474646277352647
49.51 0.21125822993210025 0.3610996127317405 -0.0001678601407997238 -2.2088948392963777e-08 5.827112610616245e-05 -4.3379051394178595e-09 0.06475844776702216 0.3149062636740793
50.005 0.37695712470773457 -0.2290244891435804 0.000230907362178685 1.9136053403431637e-10 7.384373935193368e-05 -1.5408404100524308e-09 -0.4427587278020439 -0.06229274636080663
50.5 -0.2544877070142446 -0.221428020478203 0.00012038596451626257 -4.641812180154963e-09 0.0004914115103069551 -6.628239542170455e-09 0.1723989690395071 -0.22221155757314665
50.995 -0.01033602565970015 0.3770856016849253 0.00013423740002072192 -6.366343241130336e-09 -0.0002258927972577262 1.900228657818678e-08 -0.1575827758815873 0.3420770258811764
51.49 0.44500150337895683 -0.029389368817717882 0.0006497856814009083 1.90729171703897e-08 0.0003239165931923225 -2.139769569181696e-08 -0.34399936702112 -0.24278319453700345
51.985 -0.07039217312977705 -0.3578616386145248 -0.00022622824436225176 1.4756973113666899e-08 0.00017904490102794502 3.855988898403201e-09 0.24611350408814606 0.0003658633412456166
52.48 -0.20720994130587975 0.26676957428986686 -0.00031981750437660896 -6.961510998743752e-08 -0.0004815931370933055 -1.3097717830293278e-08 -0.34240475686556143 0.24038361689373272
52.975 0.39946902586743677 0.1731713412641616 0.0006447438283360356 6.987060192655658e-08 3.2154848311989506e-05 -7.332951449106055e-10 -0.156288494536633 -0.33657532540505125
53.47 0.14859978619933434 -0.3664094732596516 -0.00034476565218569024 -1.4211768156232624e-08 -0.0004530430714671734 -2.7114337004295127e-08 0.16331137195899095 0.21542122479044992
53.965 -0.3063813949660461 0.061421511910171804 -0.000181148992396866 2.9569008308100083e-08 -0.0008804572027825001 -3.2670991367721236e-09 -0.42996500113154423 0.05938167329687164
54.46 0.2532935554446402 0.3212214282505527 -0.0002478820439606304 -4.71069287916936e-09 -0.000322291756791059 -2.3574107832883537e-08 0.057032991466033515 -0.298630334949079
54.955 0.3289559424725447 -0.25930473289052797 0.0001744533763185878 5.717789934172349e-09 0.0010310175381542835 -1.61548501061199e-08 -0.027611138992071453 0.32704620456944067
55.45 -0.26808804345253523 -0.16093961851553476 -0.0001720266814552707 9.545687053694996e-09 0.0008524724228647792 -7.979392357856714e-08 -0.40262111776985265 -0.13549141094964487
55.945 0.04758673327635785 0.367469304441785 -0.0014525374258488456 7.601019336460124e-08 0.0006451975261556701 -4.5574505899441067e-08 0.20414293292593014 -0.1320882769401129
56.44 0.42171010372774814 -0.07916401233467836 -0.0002399377788865861 3.0857264493799834e-08 0.0009589135987456155 -2.1200275016370263e-07 -0.23440861750948916 0.30062065647186365
56.935 -0.11490440066395052 -0.3186057006237315 -0.0005759100459441078 -1.0155618910709856e-07 5.258234656751417e-05 -5.992688756735515e-10 -0.268629783933659 -0.2809620142729437
57.43 -0.152368627337293 0.29068345447088273 0.00041988831963290786 -8.046896026200385e-08 -0.0005541918907744727 -2.589155678912458e-08 0.214572726541583 0.08961531062768578
57.925 0.4051211933486612 0.11888650298777316 0.0002979737778481286 -3.5057305936013185e-10 -0.00024474871587367624 -9.376942555384742e-09 -0.37811843528783384 0.1657020184843598
58.42 0.09264388252796152 -0.35910055251971845 -0.0003025465670460116 -6.865941732499076e-08 -0.0009150285120138137 2.398869050659898e-10 -0.07016737160538708 -0.3222296270898083
58.915 -0.27546330601370134 0.11292442819623578 -0.00023807471353322313 8.32396797343106e-09 2.0865329350781518e-05 -2.1875494091728247e-12 0.08558033322472619 0.26354136302479364
59.41 0.2880953841171428 0.2788101994018197 9.745181286545337e-05 4.5039692902270425e-09 0.00010566312313771637 2.128437665630442e-08 -0.41842900412422046 -0.01988457184101955
59.905 0.28076586726823444 -0.2833659497049887 0.0004264513444144385 3.810491310736912e-08 0.0005334402536683148 -2.7625130887383045e-08 0.11808726350290763 -0.2320299968189559
60.4 -0.27313471931712896 -0.10238115198974922 0.0006043495658606603 6.08488888893341e-08 0.00039241204297996634 -2.463813249900107e-08 -0.1131225458875691 0.3165523545266342
60.895 0.10071777979893375 0.3505237961249048 0.0002494378304799958 5.745762763440793e-09 -0.0006988810034358963 1.5216246341211494e-08 -0.3492629712079684 -0.19479838978936326
61.39 0.3936262300478826 -0.12365721981023081 0.0002479532192690133 2.3317333455699576e-08 -0.0005623283643765141 4.073877028664076e-08 0.21201244648852174 -0.042092567179009055
61.885 -0.15172785010016684 -0.2751263000369278 0.0005204289062522572 1.2551703951882793e-08 9.567296240563801e-05 -2.4400663610799e-09 -0.2942444053240676 0.24543836725598217
62.38 -0.09850067731552146 0.307629386072227 0.0010142782260422847 -8.035366657847523e-08 -0.0003091711018609922 2.877508998270774e-08 -0.18909126963719872 -0.29891260761600674
62.875 0.4044821389737319 0.06701098593069027 0.0002521163104890612 -2.3497733409091996e-08 4.256146485344517e-05 -1.166274899155997e-09 0.16306145411385264 0.16202321844692727
63.37 0.04022351936256856 -0.34538972225725734 -0.0003932678252280401 2.7508162147596533e-08 -0.00014772040683541464 -1.164601269479472e-08 -0.3957483674562354 0.08995607798242453
63.865 -0.2399216391954427 0.15732983568159412 0.00020480185390477247 2.933098667546419e-08 0.0005472283023351882 1.5719909927283504e-08 0.006763417251420524 -0.28761112521741083
64.36 0.3146058316838704 0.23380083317844746 0.0011181231237827726 -5.758843028386893e-08 -0.0009352623204111955 -2.1784732907490966e-08 0.003863853060296729 0.2876111507190449
64.855 0.23035747147921629 -0.29858674851794 -0.0003178801458643275 -7.311092415625185e-09 0.00035733414663628125 -1.3706711307885666e-08 -0.3917637062724697 -0.09118687169648239
65.35 -0.2712417714151274 -0.046599087270473086 -0.00039271899584550216 4.063827845809092e-08 -2.1970161123469196e-05 1.4607648041384869e-09 0.15878682904250183 -0.15662932669775387
65.845 0.1485824293432437 0.3281847171082274 0.0001305385049484389 -8.54562511203782e-09 0.00030250862518771887 8.155310895397348e-09 -0.18828544634554578 0.2884768404288306
66.34 0.36070803040963056 -0.1622493328936696 3.2425605631573966e-05 -1.6546055618886603e-09 -7.957286739261573e-05 -6.098024300990143e-09 -0.28467599907170676 -0.2372588704818843
66.835 -0.17994210730576474 -0.22771052221977112 -0.001096147989394933 -4.446018022568092e-08 -0.00027031414645677413 -5.023187302489189e-08 0.19499745678541408 0.042410992181596587
67.33 -0.04519018714758109 0.3143982853517998 -4.5943092711905004e-05 -7.175160171955731e-10 -0.0006037903716979563 -1.3251107722223648e-08 -0.33667398171564733 0.18216870856658754
67.825 0.3980912527350739 0.017771588215025978 -0.00010554692015322256 -1.1749787511554776e-08 0.0007010858421347239 -4.616903945094419e-08 -0.11004451536505928 -0.29619650262495584
68.32 -0.008003687016012078 -0.32353908154736866 -9.618451698173918e-05 1.709465696267873e-08 -0.0001700866328677464 -5.493906847787117e-09 0.0995997196400724 0.21627384177111347
68.815 -0.20060256239653285 0.19442829943434656 0.00020081142558086705 7.1009049649074156e-09 0.00014241518026804104 5.521033513322161e-09 -0.3953284328430706 0.01620144716900732
69.31 0.335553682548656 0.18890486238900855 -2.6800318453070508e-05 2.0882157451986144e-09 -0.00015238740408240044 -1.6896160010422855e-08 0.06969289111900079 -0.23618492832881727
69.805 0.18069249244161845 -0.307064358909793 0.0002120093064823675 2.2876988361343788e-10 -0.0004583498557013254 4.3605378920513724e-08 -0.07546826376809417 0.2897931107983217
70.3 -0.2596582494208066 0.006181231920447561 0.0009254325737901557 5.1467452059612067e-08 -0.0002823041634349958 -1.167432640221329e-08 -0.3488620929232529 -0.15086533041583827
70.795 0.19048738587530264 0.3004063483641895 0.0008165055574155578 -7.439753056700812e-08 -0.0001322387134900011 4.78354974148684e-09 0.17628358562037452 -0.07608431727155429
71.29 0.3242660761454096 -0.19474793317688258 -0.0007705115475790348 -6.927538387100245e-08 -0.0004391484532538325 -4.083321967157338e-08 -0.250150929880804 0.2458880296819164
71.785 -0.20112368860667415 -0.17986719259571685 -0.0005779824729990929 4.074075759775231e-08 -0.0008171823432284348 -2.8624920268435773e-08 -0.21541171926666206 -0.263280170893876
72.28 0.005820239095273004 0.3161170047832511 -0.0012648936424041874 1.540521064811573e-07 0.0002558380558227587 1.0847948195591406e-08 0.15897919056584936 0.11538722988954292
72.775 0.38474789064464665 -0.028087853194910996 -0.0011162019561166132 -1.685194512753854e-07 -0.0002966064950285719 2.0285257893563142e-08 -0.3616156089166639 0.11462188138957163
73.27 -0.05120410608794035 -0.29724943062256814 0.00015474302314026379 3.249944416147884e-09 0.00047403791578133197 -4.905444944935387e-08 -0.03672064931525251 -0.2748382457306315
73.765 -0.15928628196963524 0.22538223679133268 -6.33659093910228e-05 1.1004739408942601e-08 -8.554488475417458e-05 1.1992716084674213e-08 0.028464956082908395 0.24851477909102723
74.26 0.3481498272761203 0.14288191537194292 0.0006326231458663816 1.941461984330678e-09 0.0003257186327086239 -3.9068313465053975e-09 -0.37722573895749684 -0.052034691991862454
74.755 0.13162626693791063 -0.307728637394922 -0.0003024682939480186 2.455059181148548e-08 0.00031790515758189084 -3.917666953284426e-09 0.11570441126778216 -0.17357946363856544
75.25 -0.24186022329665863 0.05446078532971761 6.125237744299171e-05 3.1696544197322664e-09 -7.901952865954845e-05 5.628313611481247e-09 -0.14775323176322372 0.27329069436730663
75.745 0.2270150257275665 0.26927736554038534 4.4315939717748256e-05 -1.1086095376852128e-09 -0.0005496318030718097 1.4595256113042885e-08 -0.29591822477661306 -0.1973104281645819
76.24 0.28621458019752166 -0.2218231700001138 0.00042327526565246555 7.516195155480216e-08 -0.0006789228955479836 -8.614588580195736e-08 0.17335614192461413 0.0021302271333391003
76.735 -0.2140630310960706 -0.13088870086357893 -7.409496019813339e-05 -1.2032468376724014e-09 0.00010268886573100855 5.617432383615205e-09 -0.297558864990265 0.1933654523067549
77.23 0.054015711017817686 0.3090715418839411 0.0001255378175760234 -9.647781617948792e-09 0.00019595180415051756 -1.8212602101879784e-08 -0.1439821478889786 -0.27121438147407917
77.725 0.3678782602507313 -0.07047744181948298 -0.0004566946784300122 3.278559852946958e-08 -0.00036205272141180944 3.8464316139913135e-08 0.10752249984317 0.1722854366474505
78.22 -0.08831180515182148 -0.26428076605713263 0.0007974138229196203 8.289545098984905e-08 0.00014497115127829735 1.7062440378885496e-09 -0.36977696469366583 0.04683865799319015
78.715 -0.11421409187301064 0.24578324091841616 0.00013566937880075318 -6.3014022866592415e-09 -0.0003076356666785789 -5.968414450500095e-08 0.026498722724979905 -0.23609015693945679
79.21 0.3548031502819138 0.0978350637783992 0.0001954620835248216 -6.9089127461505615e-09 -0.0008780525510917091 3.906975435211052e-08 -0.043974948926068444 0.2632609583266595
79.705 0.08483367268549583 -0.3026300878155322 0.0002836271796007964 1.0010249692915544e-08 -0.00031707327495126544 4.526415532098389e-09 -0.3476593003796106 -0.11229936156428813
80.2 -0.21914858644648436 0.0981195775883046 -0.00011010072190859301 1.47776410638463e-08 -0.001586633667776508 -8.251257087813472e-08 0.1431701505183819 -0.10406350617561008
80.695 0.25650522863219644 0.23402771569538025 -0.00024471166062398346 1.2475649451538326e-08 0.00021684292626906345 7.976666140391173e-09 -0.21046567173646905 0.2427639948609496
81.19 0.245551913632275 -0.24228834133431418 0.000893951937052286 -3.9031706088010785e-09 -0.0003101821947357128 -3.526964460978725e-09 -0.2351726384346498 -0.22838639004352013
81.685 -0.21954617940837468 -0.08255850071739737 0.00013603504743887643 1.2601181083592715e-08 6.02798901803413e-05 -4.711181217430378e-09 0.14976940622330548 0.07307079587036566
82.18 0.09880132872390154 0.29671223761730137 -6.221108051831431e-05 3.415742622633569e-09 0.00015254747492190194 6.693536557462655e-09 -0.3287152267145796 0.1342301975751221
82.675 0.34389283260676906 -0.10825463177312186 0.0002063497028186955 4.454626981495434e-08 0.00034434369367201267 6.146711435809401e-08 -0.07455085921637178 -0.26000642882166736
83.17 -0.11959581533039303 -0.22888327050083943 -0.000343975916350541 3.5922633317365175e-08 -0.0006002242282879445 -6.730564084884744e-09 0.04705066283787451 0.21174235672171354
83.665 -0.06931524851072544 0.25969218731574356 0.00022583369095338188 8.163751565484105e-09 0.0005814532816535692 -1.0138311351853571e-08 -0.3626034563853998 -0.017931955024731792
84.16 0.3567268755623187 0.0542339310531039 -0.00033567176068716344 -4.336324686789265e-08 0.0005766920031428234 -1.373968434383448e-08 0.07595120497971732 -0.18504950597383926
84.655 0.04081465589831095 -0.29146234492601053 -0.00010601006682349117 -5.260409147228074e-09 0.00031191773166812825 -3.3092546584303224e-08 -0.11251305653423593 0.25657880775970987
85.15 -0.1897773864942474 0.13533428738007688 -0.000157174328703716 -7.533033093630887e-09 -0.0003852206876517718 -3.798982854808895e-09 -0.30340524905969146 -0.16068355858148228
85.645 0.28167718025333377 0.19811230407411293 0.0005219650810078711 -1.8982728350207795e-08 -0.0007986856990817981 -1.581931424677979e-08 0.14929051243939437 -0.03192414347132936
86.14 0.20291614626803675 -0.2553729703226751 -0.0003625056433747419 6.974464797736021e-09 0.0008407181855577765 7.397238387556899e-08 -0.2608899826596957 0.2002330558988176
86.635 -0.2190640198727531 -0.035982088404348536 0.0007609158399837826 -3.5535900173451174e-08 -0.001025359648683039 4.877404597779669e-09 -0.17128055404957632 -0.24393159594311165
87.13 0.1396328172286297 0.27898379311979754 0.0004866812477035837 7.772889583018216e-09 -0.000488794480103838 -7.253835405358871e-09 0.11060478640402446 0.13204721727410051
87.625 0.31728584987862457 -0.14181336821355092 0.0004359349197897432 4.868452372771965e-08 -0.0007747526463823858 -7.82294680607977e-08 -0.34461364701870006 0.0727260990375813
88.12 -0.1446436364581197 -0.1907162814858537 0.0007139461354344487 1.9039223938142555e-08 -0.00038628006168371415 4.8154614005830174e-08 -0.012354049405281049 -0.23318697113728595
88.615 -0.025216668589028927 0.2680970215104664 -0.00022864911637100765 -9.891447093372084e-09 0.0004794832303762144 -4.7576369008915416e-08 -0.01764958506280529 0.23400721446422468
89.11 0.35096007301846716 0.012212526073990725 -0.0006074455702867764 5.4871857682284656e-08 0.0003523619815266501 2.6618369575296925e-08 -0.3401818828823274 -0.07649418173652832
89.605 4.202646765512641e-05 -0.27324454763649325 -0.00042723138289485707 4.6098312170967195e-08 -0.0008861490199038842 6.189765292861991e-08 0.10910473426545012 -0.12478692543958965
90.1 -0.1579946952665892 0.16749101225047008 0.0009582467327697051 -1.4437578237211163e-07 -1.5596037113230333e-05 5.315299270256725e-10 -0.17441690320793743 0.23626851885800265
90.595 0.29891938956994557 0.159323085055366 -0.0004684690485839534 1.6243025520259984e-08 -4.633593457722944e-05 3.8491884361091614e-10 -0.25231495330420706 -0.19708071291150028
91.09 0.16161057443148028 -0.2641851104812493 -0.0007430989340369619 -9.218731681975314e-08 -4.335978575913514e-05 2.518713032465552e-09 0.13604722494269916 0.03549600482083514
91.585 -0.21043409843184926 0.008517695563998557 -0.00012752123796080253 -6.952134623106256e-10 0.0008126060692905126 -5.0356479959211914e-08 -0.2969288041582062 0.1493262016027392
92.08 0.17539349607312804 0.2556456178152665 0.00030518999905812034 -4.714615713278065e-09 -0.00026537707501891476 9.99593596866678e-09 -0.10712604149843176 -0.24256583892109906
92.575 0.2868120320147833 -0.17008750320264304 -0.0005755278327811063 -4.9837489727926316e-08 -0.00042333380159274397 -4.9331729803825564e-09 0.060404055298834886 0.17657478642845023
93.07 -0.16313163634425507 -0.150608672361112 0.00010882711292542162 -2.033237352751092e-09 0.00046763783427635565 -2.9481359454108814e-09 -0.3456096252258667 0.011967492992280088
93.565 0.017776041383804713 0.26960705835825916 -0.0011585023952866594 4.5677885382551644e-08 -7.317801842662001e-05 6.419616373439913e-09 0.03894021851275208 -0.19116347169970999
94.06 0.3417924960132581 -0.027270869753737822 -0.00017144592239765538 3.8489088728906324e-08 -0.00044763788607634546 1.7346340733892144e-08 -0.08217870233169709 0.23844210838098312
94.555 -0.03657458600360112 -0.2516199594020645 -0.00018594616523984629 -2.0645568807788915e-08 0.0001725692874543193 -8.026225394915532e-09 -0.3063741165101381 -0.1264119628968953
95.05 -0.12300230974847 0.19346137455185702 0.0005521301778845621 3.317732551407244e-08 -0.00018015852162292254 -1.6267078080385926e-08 0.12472788741154824 -0.060454422310227636
95.545 0.31147142084953905 0.12087472116928304 0.0004514275672700818 6.151330787616543e-08 0.00045130856333349344 6.964991604632443e-09 -0.22642807565026551 0.2029976241596266
96.04 0.11977977377364558 -0.26520237786102646 0.0004901112375756576 -2.236274620899242e-08 0.0006917489421983895 3.088350934262573e-09 -0.19458989595407136 -0.21819516438472594
96.535 -0.19571103545662072 0.0495241584559213 -0.0001600554619113175 -1.7607531438774522e-08 -0.0004144288558239455 9.33362629132552e-09 0.10982822757598759 0.09549715645372658
97.03 0.20748951079773706 0.23042054970408915 -0.000395581548363283 1.4697807923197705e-08 0.00044400634622817 -1.055275373591559e-08 -0.31963002689482384 0.09438944247311618
97.525 0.2536164722392465 -0.19312830179710735 -0.000400324376774444 4.959329189755573e-08 -0.0005594462836549514 1.8055875198590133e-08 -0.04725983720894498 -0.22626633952866135
98.02 -0.17430492560923663 -0.10898054114633868 0.00032594033446728805 -1.1691726807077818e-08 9.632881477202249e-05 -1.0830304465209223e-08 0.003472359484854511 0.2047920495639358
98.515 0.058855831390446006 0.26498593675107246 -0.0008215210019573598 9.755987180697842e-08 0.0008424313638758116 -7.505917160270257e-08 -0.33246686531427816 -0.04488611800229433
99.01 0.3256365244076002 -0.06357988020663456 -0.0003690119969321947 -9.306501132826403e-09 -0.00031559680843422545 6.412400719815116e-09 0.07710982471191163 -0.14124232524086647
99.505 -0.06862014859487513 -0.22516688140673177 -0.00014779564320129368 -7.722917264258413e-09 -0.0007042556108682252 -9.713739768793266e-08 -0.14197382028382652 0.2267391295865586
100.0 -0.08598005446707767 0.21300100741801412 -0.0003815641513289956 -9.623499050268314e-10 1.4024500751784568e-05 -8.788513013668103e-10 -0.26359012422304384 -0.16589824833003153
