!Created with skrf (http://scikit-rf.org).
# GHz S RI R 50.0 
!freq ReS11 ImS11 ReS21 ImS21 ReS12 ImS12 ReS22 ImS22
1.0 0.36292413013843866 -0.24740005750922126 0.7735468302665349 -0.020240786568553343 0.8529937206166219 -0.09239089058249625 -0.08562599473596816 -0.2592087530967976
1.495 0.13502217636724556 -0.08892762501756306 -0.8271908952708262 -0.15075872442053706 -0.8259032509624591 -0.1494147719867439 0.1693273009846772 -0.07906418541341184
1.99 0.26280864182613495 0.13890176030704776 0.7093150595414094 0.32390246574139403 0.7854889817542059 0.2954890820880471 -0.09670122996421915 -0.010180975681041215
2.485 0.31296090938439436 -0.056802808745966646 -0.6256384268894708 -0.4201170483588311 -0.6783612276483407 -0.3798023356363724 0.02196757267429841 -0.23649201756389251
2.98 0.029372854247942018 -0.08150989362350557 0.5479662425849984 0.5632732034874505 0.5335332665903354 0.5627475113843586 0.12474423255293834 0.040382342339960076
3.475 0.02541080069598045 0.13672692637252173 -0.42001574599424185 -0.636949361150489 -0.4432237467749288 -0.6310283756241103 -0.10937068295212192 -0.06024078116428171
3.97 0.1796417969023508 -0.010306120247823283 0.27295264311830275 0.6946874296647275 0.29289876056564895 0.6627473439327508 0.11571773612474302 -0.15219910645621487
4.465 -0.012177178991972421 -0.19680335593085416 -0.11375424417965199 -0.7118668315312336 -0.08804652231804957 -0.7243074427113972 0.042771439422266064 0.11491993946032235
4.96 -0.11142033414915967 -0.026117755230450082 0.008919146934824066 0.7205974460933424 -0.0035961771754147564 0.7263204954514945 -0.07864723161349417 -0.09539537447018819
5.455 0.12310609342674747 -0.056701043992508 0.17284713939556887 -0.6944083855578956 0.16538458560842006 -0.6711057110617434 0.14846924087470045 -0.0269535784881981
5.95 0.09881506588539501 -0.2798975440518307 -0.2961769680275003 0.5813131591329866 -0.3417056596103145 0.6156827694371719 -0.05164160517827994 0.1264428559900805
6.445 -0.06091847336044427 -0.1806731247831655 0.3823642103554623 -0.5510687068939667 0.4103704893071686 -0.5659889235908854 -0.027111717729927765 -0.10305731474367422
6.94 0.15713941749669819 -0.054351913415456594 -0.5230990189493033 0.430408916439249 -0.5232323693130346 0.4236433173403067 0.11164368744466208 0.0887691088617631
7.435 0.24985379440118458 -0.21729473241471223 0.5462931066803445 -0.2747503818176533 0.6153732538662368 -0.30520776613348044 -0.12060058758381731 0.08587446511938662
7.93 0.06307928143041373 -0.2034021354813261 -0.6077420036937492 0.20166886418234234 -0.6422626639752274 0.21860666863247152 0.028559435361995632 -0.07537434733294324
8.425 0.15154181382664011 0.024521684639823963 0.6543031563384526 -0.039668198850636244 0.6551624462437106 -0.03594237867023997 0.028702884802269575 0.15629987313950686
8.92 0.2927579016422213 -0.06033126877033465 -0.6000978400957905 -0.08849119838383193 -0.6680399323310785 -0.08120237821517741 -0.13936548205292543 0.0210014381756286
9.415 0.11342453337973596 -0.1432480567337572 0.6005067771753173 0.19577890304514592 0.629100204428766 0.18243360325678679 0.06806364747953547 -0.01388190025178844
9.91 0.03919898745349681 0.06984532144626643 -0.553734772677679 -0.32650900797127586 -0.5423517544172477 -0.33422514534897707 -0.061003053808965924 0.1707713117417328
10.405 0.19612029296341912 0.0604165375299246 0.46377777589873165 0.4100806076092996 0.4979874351759341 0.41831818178358093 -0.10900634840267653 -0.029358632557488787
10.9 0.08550853453902844 -0.11623639468256812 -0.3697713593440043 -0.4994195992853924 -0.38713225367636894 -0.4869065042505384 0.07035234747034139 0.07152409059780532
11.395 -0.08491468623760808 -0.0010580625436511454 0.2724546656551455 0.5493296710036528 0.2459643717010334 0.5592393134523717 -0.13328242322619765 0.1440359388654926
11.89 0.05900887389728145 0.06645645047447764 -0.16605427200713557 -0.5921978130644014 -0.1700852350579932 -0.5981840664428772 -0.054487485280108376 -0.03771620609904524
12.385 0.0864527740782198 -0.14627296791905955 0.007672810704281418 0.5905873557983676 0.02324362498566682 0.5853683316527372 0.019608838472900705 0.14902152589917864
12.88 -0.09493584115299937 -0.13935267196421827 0.08425591637643651 -0.5630002287491723 0.11570838757900889 -0.5751606047407961 -0.1780270640390855 0.09406582672481395
13.375 0.000899056575331972 -0.0032132201875446015 -0.19819559200935777 0.5576680223730689 -0.20012810077410612 0.5586934832746602 -0.011599861959661752 -0.0027282277259973926
13.87 0.1591689343572578 -0.14568395246165705 0.3282199086945111 -0.45330546213765516 0.31625154848917 -0.458562949350104 -0.06773674392583034 0.18705086257242406
14.365 0.016265627514260517 -0.2205997651069009 -0.38249209516790716 0.381126756696788 -0.41754783372902615 0.3912532394726241 -0.1854384510671696 0.03489590145661117
14.86 0.021431785137043236 -0.04258075554538225 0.4780175450751822 -0.3171897120489466 0.47443115301120725 -0.31834883577988293 -0.0015442336347668822 0.056352785378338946
15.355 0.21821314310309742 -0.058799083313866685 -0.518353721293702 0.16969174624352684 -0.5132827310780874 0.17496516519318916 -0.1582184335949785 0.17153958882895762
15.85 0.1334915465401032 -0.18439846434337392 0.5278869515940409 -0.07920551960251399 0.5635472253747903 -0.07909258219040335 -0.15908719247335898 -0.011821228196320541
16.345 0.025403447060740696 -0.028961971458576163 -0.5653350798427178 -0.026301344355568464 -0.558977937084705 -0.022713816128733227 -0.028940329685898294 0.11182710751736019
16.84 0.17722409620052587 0.05741034737198804 0.5271880266209469 0.14678326045233112 0.515496598491746 0.15389121958510021 -0.21911172296447232 0.11464014341747837
17.335 0.16209119270417202 -0.0931738023307396 -0.48591374567086953 -0.23965040081920483 -0.5080935441841686 -0.25156847094528034 -0.10994996175593798 -0.026416173362590525
17.83 -0.0250103298879095 -0.033495063126892696 0.43753013906536453 0.33506357773244716 0.4324862277359806 0.3338303463494582 -0.08311524320724939 0.1456196342139821
18.325 0.05066943666679737 0.10670506401524542 -0.36601614595309384 -0.4001310292523222 -0.3380583164594498 -0.41600114249118064 -0.23495198751286966 0.04390678863320839
18.82 0.12193070394552355 -0.03780494338675507 0.26750332314773945 0.4695033492640426 0.2779030918689019 0.4842230118403903 -0.06733053957773265 -0.0012336939391869473
19.315 -0.0535017513173617 -0.10036127335569289 -0.1565009030892542 -0.4962270424791233 -0.15844353907716177 -0.5006389155934106 -0.15079150810478573 0.14882749175969526
19.81 -0.05775938939959691 0.05112574966449283 0.07957490459812587 0.5128101707616978 0.047982907398932885 0.5272628065871776 -0.21493534164414949 -0.014051964340920224
20.305 0.09600841254508684 -0.03555403544260656 0.0536686699600346 -0.520146202681146 0.04031642503813044 -0.536467878837515 -0.05627612258484176 0.04928687901510747
20.8 0.006855886140762823 -0.17637394529462827 -0.15900647113316746 0.4623818007933577 -0.1497214363920163 0.47847066826715745 -0.21383950159543172 0.11623501933424235
21.295 -0.06897881293471252 -0.04862459705634501 0.23024798405996338 -0.4424511942520606 0.25211870194554453 -0.4498185474112961 -0.1734097749984031 -0.04594581529193125
21.79 0.11258613923584083 -0.025184592127424438 -0.34361274116991924 0.3741417809386304 -0.32453105240980906 0.394392093996619 -0.08766871781482244 0.0954782185172941
22.285 0.11859626381133506 -0.17448321606182562 0.39325400127008137 -0.27031340114678065 0.38326212887141703 -0.2885355574860358 -0.25263913457632975 0.05419071687959409
22.78 -0.013258097065381546 -0.09955484121033316 -0.4455423455901162 0.2123607014935088 -0.4555488355237375 0.2152140533498648 -0.12856632700409634 -0.0484483988569134
23.275 0.11134283116220517 0.029330600998138955 0.4915207596749727 -0.10317497816111007 0.47167205630690406 -0.12164329502509479 -0.14350092842231696 0.10990738000683063
23.77 0.1833840110733999 -0.08586738877483013 -0.4817489924838915 -0.0014220667432833613 -0.4695010502345195 0.006898873980175327 -0.25141624859021 -0.01852479083265412
24.265 0.025771827641909908 -0.09039598421147226 0.48646917324372624 0.08880378299699387 0.4878184396908577 0.09138498079178521 -0.09311875401348706 -0.024254843987317035
24.76 0.04279491759118741 0.08031623042285084 -0.45982938828306436 -0.18213482660868072 -0.4394686248316171 -0.17508232450998587 -0.19881317736275342 0.08796826345393227
25.255 0.1570708149195174 0.016239195782293027 0.40928117673989517 0.26366966209490594 0.3860689408800543 0.2704996371561449 -0.21134542403670833 -0.07524005180948737
25.75 0.024323975653270047 -0.08029530449260158 -0.3428245237568914 -0.34608515954327074 -0.343764130833881 -0.3563622396094874 -0.08457659513184076 0.014393733072357072
26.245 -0.05298526174002134 0.05923194005310449 0.2708496282241938 0.38746409976150553 0.25329332904277696 0.3926257718644231 -0.23428862506891568 0.03988407804779196
26.74 0.0811606080728836 0.059419433347272385 -0.19270698945495618 -0.43623297943152606 -0.1635838231716244 -0.448848235032177 -0.15240042101986892 -0.09666481663319818
27.235 0.03548156525525814 -0.10247264103742103 0.07095335646680682 0.4581468904702931 0.08067944417709587 0.4812799178857356 -0.10784165597808872 0.050287338501988736
27.73 -0.09125266367680122 -0.03395683792897539 0.005869483079544357 -0.447099244860307 0.014444982212777947 -0.46103348567221375 -0.24061785987051745 -0.018933680002291883
28.225 0.02995017958872491 0.039231340895183445 -0.09686150490161316 0.4524468772976281 -0.11808601928365692 0.46417082380059405 -0.09937258913215986 -0.07984486784379674
28.72 0.09356697343126831 -0.11392686719213485 0.21018543300657885 -0.3958830504748206 0.19570586938352458 -0.43123091489857973 -0.1524367052195779 0.061476697943327586
29.215 -0.03825581352563581 -0.11832304886922676 -0.2670298553919828 0.34570729481865414 -0.2666327976828864 0.3637631072505753 -0.21649811213007927 -0.0733656567600175
29.71 0.022946437168842607 0.016137978871583643 0.3450832360021759 -0.3005644419526274 0.35289939299587286 -0.311279456133702 -0.07257407368971683 -0.04034807452432935
30.205 0.15523321369507703 -0.06353177364980754 -0.3979097421823852 0.19783459219139382 -0.3845463366034688 0.23411045522463816 -0.19695499754135987 0.037919857779333994
30.7 0.04625706833775286 -0.12898322701031442 0.4230294484310019 -0.12356404987650328 0.4158687904214654 -0.14002042402748524 -0.16875383994291843 -0.10974270631996833
31.195 0.015274452948626628 0.02419346706999677 -0.45391446967367777 0.043284908624302953 -0.4538430785511816 0.05057144081601369 -0.07630430926205037 -4.39580985118908e-05
31.69 0.15482322537299792 0.030751145212745697 0.44305680403371855 0.05127477642015578 0.4302477705983839 0.02935202904745034 -0.21794210103488226 -0.012264893658425677
32.185 0.09235540443579714 -0.08129728738908161 -0.4251031394672666 -0.13747891850893906 -0.4104535130216137 -0.12959677796203764 -0.10887159591150603 -0.11597902468606594
32.68 -0.024479536758449088 0.024148401843709047 0.38831647550285847 0.21493965349617683 0.3862044175196287 0.21766621984305753 -0.10236746304654268 0.025168876857791553
33.175 0.08315847698605607 0.09797329577795713 -0.33797488043965085 -0.27234332285692003 -0.32156901157863754 -0.26936742489820015 -0.2045095357468032 -0.0676614578335145
33.67 0.09062929581655639 -0.03708819068605538 0.26908947151974455 0.3461138116580921 0.2517448761393176 0.3476387532502772 -0.056832572005295456 -0.0874025606871262
34.165 -0.05692922507912414 -0.025128803217233237 -0.18176833772271148 -0.3795641171136074 -0.18293270035216996 -0.394294969565546 -0.13550265638236167 0.02706149024315785
34.66 -0.0019834613474867114 0.08877587164115949 0.11906011831383788 0.4020225932638931 0.10085249727655368 0.4050365272982858 -0.16108598571180321 -0.10618438530952079
35.155 0.08639708568734401 -0.026060302196685724 -0.013368694803774056 -0.4238540289890284 0.00035853724570681137 -0.4324358395408283 -0.03446225698114613 -0.03726686544055285
35.65 -0.029492740536781265 -0.09905101629194112 -0.0788683345286623 0.3968524217746947 -0.07480845861963087 0.4244603612714003 -0.1659622400667448 0.005694412404595729
36.145 -0.03878765225392409 0.02693516891294805 0.1420416909958153 -0.38462220525486046 0.15377145699127123 -0.3909434035535889 -0.1053093854681937 -0.11597155090561576
36.64 0.10401309499674077 -0.013280816468955027 -0.23803048770580837 0.3427001198643948 -0.24789730929691114 0.35645456997024216 -0.04735834814232026 0.010973693585304018
37.135 0.05177239917684372 -0.12704694806660824 0.29667104745238376 -0.27162930477398867 0.2945494065667064 -0.30508155838357964 -0.17547019225561852 -0.03321078219729837
37.63 -0.02327453076315176 -0.02166606464029639 -0.3450557917647226 0.2245717190642352 -0.34784799673177 0.23113078737928874 -0.054546626733923034 -0.09655269870237672
38.125 0.11159564400340516 0.033942617510365515 0.3912185640075567 -0.14466524057341848 0.3991403248647895 -0.15480035336914527 -0.08476060752781656 0.035136119333350375
38.62 0.12338833195046887 -0.08171374349116016 -0.4039708564825022 0.060019078518960316 -0.4039151447887404 0.08631751956672692 -0.15856275705612574 -0.07528009140726766
39.115 -0.000270170663307405 -0.02995885701393886 0.4138542843267326 0.015370904819995696 0.4120127715075176 0.010563861134101694 -0.021848815509483203 -0.05428036144126634
39.61 0.07189058280183934 0.08940767476612752 -0.39671395883244764 -0.09046419362995509 -0.4044592966938104 -0.09273599504310777 -0.1229656849823203 0.028946927996585246
40.105 0.13715227528729812 -0.0030898981916583274 0.3711103016660769 0.16628792388182428 0.36718063099667403 0.15443599840578198 -0.1141623682723599 -0.10009141714104948
40.6 0.003473597050739463 -0.03411620631048017 -0.3219162830282885 -0.24297630809225995 -0.31863086705642485 -0.24279562330927512 -0.016952746731955654 -0.004170849401024268
41.095 -0.002578710805746645 0.09582819339633808 0.26451711648626997 0.2833112591828831 0.26911350462509476 0.2973498503400896 -0.144768436334277 0.0015634168396722655
41.59 0.10211936716935083 0.04684166533303169 -0.20623422256474694 -0.3351641358512921 -0.1992707377724161 -0.33137443691361196 -0.06064026420743272 -0.09485772894677973
42.085 0.013899510883656365 -0.06203784014765559 0.11101518831541309 0.37147525959780014 0.10971921186295215 0.3759711143613822 -0.03913627597138605 0.039135902545942375
42.58 -0.05389113363401302 0.03621702058495934 -0.043832562200917975 -0.3709857164776367 -0.044538223859855196 -0.38831061508364595 -0.1436238179596379 -0.03219477031990725
43.075 0.06580016028914208 0.05219613628510821 -0.03237931834200052 0.38425475491602323 -0.03840095448331803 0.37982009792015076 -0.018389930970833385 -0.05637042037538042
43.57 0.059720338266292985 -0.0848213583196244 0.1306463650478254 -0.35717877945274956 0.13232152083578175 -0.36606785136361775 -0.08006794972520795 0.05908802471285331
44.065 -0.044074802200920665 -0.03898292314093866 -0.18713195540509198 0.32263273785078556 -0.18890668018458628 0.3409057511323034 -0.12096555168572791 -0.058710863710752514
44.56 0.05244414410365842 0.04714127437812255 0.25462793767087694 -0.28956310188020595 0.2572656433376047 -0.28389377942037947 -0.005909118812019228 -0.003480985766556466
45.055 0.12096571689729584 -0.05982156908345783 -0.3118615718239775 0.21778240985826208 -0.31892533209473517 0.224654893065579 -0.1216035943660305 0.04954810057275104
45.55 0.011308743006507586 -0.07261400244296295 0.3464327559162219 -0.15787870523332612 0.3494132744439834 -0.1713319694743612 -0.08297380596398243 -0.06667771069507186
46.045 0.04001023554135746 0.05822864500767063 -0.3727353434971239 0.09128538959597157 -0.3747851438878929 0.08248386139416634 -0.024292018002589785 0.045075654755061034
46.54 0.14810287272033715 0.01202420129466016 0.37706418882974996 -0.015216444874057456 0.3892019313360803 -0.009238828786904813 -0.14385657888244074 0.01738683953276971
47.035 0.058577847642070684 -0.055488878906432476 -0.3745564103166958 -0.0618998888081126 -0.3796161608817105 -0.05580768532271146 -0.04438339956072189 -0.051464332736806624
47.53 0.005873383171244899 0.06479418801686479 0.346984865849984 0.13091795131006914 0.3502214660088698 0.1436686499115565 -0.06246332890155115 0.0730586721240237
48.025 0.11722060261409448 0.08033127943009069 -0.3129104424353017 -0.18571034086361154 -0.3228967617759791 -0.20331594908633108 -0.139695819535173 -0.019121323288599196
48.52 0.0759652764414766 -0.030862790342980277 0.26483248318549585 0.25731631810475836 0.27164978263078277 0.2555502000234762 -0.018946247090789584 -0.01275353564072594
49.015 -0.03250116782661126 0.02952003925903309 -0.19496068270003916 -0.2960529993206009 -0.2003210596241788 -0.3102074690568085 -0.10513706123523163 0.07563153270146317
49.51 0.053214170295626424 0.09696309559875983 0.14245645779849786 0.3229807420360124 0.1473572848495995 0.3396561547579911 -0.1110259423020307 -0.040986490932181714
50.005 0.08427108345726754 -0.023143762583297783 -0.058543442488273825 -0.3558390614621567 -0.06749298029775108 -0.3515466410575156 -0.020964915540591805 0.03697572133459533
50.5 -0.031384345934775106 -0.03534624863469757 -0.021392234864195097 0.34755582805492496 -0.016273156940475826 0.35694255648250417 -0.14046397090612445 0.05680095422319044
50.995 0.00796694544917839 0.06686655735365749 0.07902179949891452 -0.3416022219103985 0.07568161350586973 -0.35190894619467067 -0.07547631050829275 -0.03846194652658691
51.49 0.10483412232073894 -0.012474765454125543 -0.16225672825601573 0.3196217221125565 -0.15201215941464644 0.3139130385037058 -0.05196034161060004 0.07715026966168283
51.985 0.02146431395263441 -0.08056471293733532 0.22189103380781172 -0.27126192954913647 0.21927421513654224 -0.27639342605918243 -0.15645543662425196 0.023556959111309773
52.48 0.0012422215036045508 0.030063920970045056 -0.2688790381177467 0.23302088208052976 -0.2651845357227521 0.23574672873031857 -0.04915617202581452 -0.013841951474648971
52.975 0.12425862749557466 0.02697664031401432 0.31289587628283405 -0.17226610764624484 0.30518557898175136 -0.1596709808727671 -0.10017555546913827 0.09238209499058408
53.47 0.08992900485607601 -0.06876353953382035 -0.3382384938594869 0.10538147298629714 -0.3404947064394819 0.09899866349659801 -0.1491535132523769 -0.010712302494561237
53.965 0.009573657906137815 0.01546558297629568 0.3530577305238569 -0.038617287149661055 0.351965586896081 -0.03531834392502581 -0.0426317979398402 0.023005573097545827
54.46 0.10771917743756101 0.08066184433254137 -0.34357159267289755 -0.02649503256640692 -0.3432396093676422 -0.04752703694161272 -0.14441533979148355 0.07777010509963775
54.955 0.12601141440731184 -0.01806512641658406 0.33407661826242735 0.09424966047558034 0.33952450286279223 0.11177642502914874 -0.12276970132715916 -0.03142259292551148
55.45 0.00850464614074875 0.00346945718271323 -0.3006609407597576 -0.16677287502372887 -0.30546313768343253 -0.17186308969942382 -0.058426852379248516 0.059368781406332144
55.945 0.05181222030695824 0.10502121979863353 0.25470123680271983 0.20863649008506338 0.25625406106539617 0.23310628184336915 -0.17056112783618266 0.04409122149987024
56.44 0.11823769169176729 0.02647470366926628 -0.2111637065172508 -0.26055176617992964 -0.21823926073482086 -0.2802616765332187 -0.08829357559582728 -0.027736570228988962
56.935 0.010545418522249142 -0.026646588566494073 0.13757279740824926 0.3042064558816867 0.15018748155457823 0.3084792560849488 -0.0922057034706005 0.08166822670866018
57.43 -0.005959132824760417 0.07491719213639246 -0.0784735010440911 -0.31331323068093825 -0.08050028498924452 -0.33207471631397056 -0.1727694022593776 0.005984634201893935
57.925 0.09724450038264257 0.04390983075618531 0.013879592240440247 0.33181095416077616 0.022260048248079808 0.34489380073382125 -0.06566507173353034 -0.0012284950586918112
58.42 0.043189009059520535 -0.05929168871052728 0.06937343893368048 -0.3237873619603582 0.052238704025196495 -0.32726685984291876 -0.13558685057248648 0.08234413791515703
58.915 -0.02169624639917098 0.01657813363516807 -0.12434282776552849 0.30251770468018485 -0.12029305270985789 0.31249183661456076 -0.15612747906180147 -0.023687465872107613
59.41 0.0862339063663566 0.050670194921050356 0.18456063308583814 -0.27870943152927913 0.1751369789020655 -0.2849895017933248 -0.06666040587513984 0.03438862373551949
59.905 0.10047776035984592 -0.05637191867073585 -0.24119515496153887 0.22997452955341335 -0.22496465427636786 0.22598795751062692 -0.17366475644961885 0.0587832479676703
60.4 0.008263786537784435 -0.02542450814317471 0.279142781226987 -0.18138481228477138 0.27466943998047405 -0.18082913297690487 -0.12692280460787242 -0.03641967390246949
60.895 0.07745556006157552 0.0674892235164172 -0.30666110003594976 0.12440515603803978 -0.3000801645812722 0.12267238136235428 -0.09145300855897212 0.061649235262134096
61.39 0.14334499025963177 -0.00957890981033592 0.31941617492825264 -0.06220798090185596 0.3115387611960935 -0.048756165867492235 -0.18980236825938904 0.018062442797254576
61.885 0.046278305326077344 -0.03200017336158652 -0.3291021794941649 -0.005439707890240259 -0.32648349723230713 -0.014743253804301176 -0.09739832592492774 -0.029045989433525047
62.38 0.04746196157488651 0.08036700105328762 0.3104066591803142 0.07000468446775299 0.30929401408103147 0.07714721032383011 -0.12822032288802698 0.068699414354446
62.875 0.14082449754505574 0.049913674758176846 -0.28719013592239323 -0.12190212714004323 -0.28202847014896354 -0.14319896194234877 -0.1818267212169931 -0.023233103022624064
63.37 0.06751067012393071 -0.02551339430856396 0.2566417701862703 0.18980610288928898 0.25886654268042036 0.20204542021546987 -0.0809959202197156 -0.005040766053003823
63.865 0.004221035037735652 0.061229241227273065 -0.20124417004662673 -0.2321911300294899 -0.20628720748346263 -0.24097251562590824 -0.16290006039772176 0.05394776906667472
64.36 0.09730249903709434 0.0808462952485629 0.15648471631118188 0.2618203911124386 0.15160333488343855 0.2825527424361716 -0.15169136917932996 -0.04948501806401622
64.855 0.08062023342397392 -0.024981200251268945 -0.09093488066648857 -0.3003988795176574 -0.0986803978298052 -0.31235831915161144 -0.08346678607883884 0.02547992484649849
65.35 -0.014915454401541173 0.008313180564271504 0.022703478736475012 0.3055396346015448 0.03296772212697303 0.3135446005390002 -0.18386073501257386 0.02280041125360147
65.845 0.05618994786538571 0.075409529759438 0.030465911498653128 -0.30635032830651876 0.03350969597783636 -0.31991082893130157 -0.11647548352901828 -0.052870401154333294
66.34 0.10603854317827006 -0.021010097079116722 -0.10158802647280626 0.29699851043149206 -0.0914327460331034 0.3076027867531501 -0.1071889802827733 0.04703697112259892
66.835 0.01404395134147688 -0.04329396942048359 0.15932297019444408 -0.26793458729651676 0.1471846818518673 -0.27203913717986417 -0.18644328095516566 -0.015174674276301271
67.33 0.039318349660470514 0.05481074056571721 -0.20569927588050543 0.23689725815206522 -0.2054599989791952 0.24189520195298111 -0.08930809548250451 -0.035545810013724255
67.825 0.13449688350360223 0.0072960387730626125 0.24713894221491023 -0.1888042757046941 0.24053207234898955 -0.19430057978261175 -0.14164374404233987 0.04788342963369072
68.32 0.07076709814313495 -0.05683016481104498 -0.27978575729096633 0.1373821361312023 -0.26882458092788064 0.13393522057600327 -0.16764936221587817 -0.0490206869402728
68.815 0.035314045088441784 0.04002703230277526 0.2991445025104266 -0.07744662582863523 0.2999245646829439 -0.07728542348144082 -0.08026198905899881 -0.007933818369184678
69.31 0.13629097589001446 0.055174083133770285 -0.29693036311511467 0.018791917003055804 -0.29743507154593063 0.01795297074065513 -0.17002731309737756 0.02598475248917687
69.805 0.11251446263302062 -0.03214493441914314 0.2979812268766259 0.04071391017521228 0.29170103202883424 0.04917034110907937 -0.13328861401638373 -0.06714481509160179
70.3 0.025234448664556992 0.026158464265302973 -0.2791541299380647 -0.10847789237371717 -0.2829140074944684 -0.11150532632550089 -0.08807258793254846 0.017718372977957163
70.795 0.09699363170510399 0.09008086184103038 0.24160940680094545 0.15107734532001132 0.24668066282486553 0.15812610964262494 -0.17933245075732812 -0.009361003508614466
71.29 0.12203184473951853 0.0013431561914290444 -0.21193625743836245 -0.2029967177625831 -0.20597180805262233 -0.21263574527362922 -0.09583871978956371 -0.0626981439735442
71.785 0.016875539900639964 -0.002333308026131768 0.15586144208682653 0.2496638715420033 0.16230862927030973 0.2535139835156857 -0.11142038296103478 0.03152074939890701
72.28 0.04289586878297627 0.08448935176606863 -0.10400600920286615 -0.265695507504606 -0.10662571580854421 -0.27135244028684313 -0.16698913974010196 -0.04403895397297722
72.775 0.11610619188156616 0.021926743574635168 0.0494514511729475 0.28925855530851596 0.04345572429882583 0.29598592444844357 -0.06983655313076106 -0.03749260573318912
73.27 0.03566478549097934 -0.039258166600399505 0.020067194810040993 -0.2941758285758044 0.01230007709739634 -0.30027386926645916 -0.1385419419991661 0.02750493951312103
73.765 0.013197515227498804 0.04485174720976383 -0.07212250400555026 0.28279148399330356 -0.06948377204067073 0.28559013198638905 -0.13828773092082075 -0.06621145583765255
74.26 0.11284574745352398 0.03450781839469335 0.12733674546487964 -0.26666750571304676 0.13388143512957876 -0.2703155252367761 -0.0650349542130253 -0.003895637719968545
74.755 0.08549083345320434 -0.05626596423535049 -0.1793957293687501 0.23355551593231144 -0.1766789442901559 0.23933248936059306 -0.15860419011878837 0.0060287818178206285
75.25 0.021438264730704638 0.004688035893407165 0.2203726399244858 -0.19604878659151836 0.2195853869764014 -0.19572433718904386 -0.1017632555132485 -0.06871007369059091
75.745 0.10862525026886585 0.05360196813786218 -0.2490310160775975 0.14527792481016202 -0.2608164448055985 0.14768729795002072 -0.08214417582350238 0.021921944910576915
76.24 0.13260032946021863 -0.03277312940263509 0.2687195231384445 -0.09447140392232313 0.2735243714998667 -0.0971076558278728 -0.16094232802458472 -0.02549266871891631
76.735 0.04422981875082827 -0.01543770807994077 -0.286155047363877 0.036233858626556356 -0.2862583182681013 0.034386010976847195 -0.07168485444241125 -0.05326589207341783
77.23 0.08495565005701865 0.07396368066556477 0.27640755342397677 0.02448890911456908 0.2904355366575595 0.025028120353870524 -0.10880663191787618 0.029874284482122995
77.725 0.14797165200838794 0.014047160508671618 -0.2621167841219464 -0.07348347309903278 -0.2712671802549863 -0.07437555390348116 -0.14291572681633335 -0.05410132190766456
78.22 0.06073406229938672 -0.021396126869132396 0.24541367893124338 0.13585547497980527 0.24660333866017084 0.13608892805692513 -0.054282086648285446 -0.022884792817994166
78.715 0.04240496197698155 0.07122843336626308 -0.20252691498768044 -0.18019258225511442 -0.21633695180664042 -0.18268483513083122 -0.13285448328223745 0.019445982610190933
79.21 0.1258881922876325 0.051680915416424805 0.16545512479430638 0.21259740124739654 0.1714356460317549 0.21436178256057373 -0.10937920550247153 -0.06661869303262423
79.705 0.07431035376994685 -0.028871955062946052 -0.11484461454343471 -0.25286604513265565 -0.1164250705291859 -0.2530856359114341 -0.05726984320252543 0.010495248621138827
80.2 0.011043336815878489 0.0344585057916897 0.058015658987918814 0.26827804398939725 0.06713680472868647 0.268874579569251 -0.14438720188756365 -0.00312150640632398
80.695 0.09355599774145011 0.0614464290470115 -0.008992954100159196 -0.275240214250004 -0.010275647254701427 -0.27401585160084757 -0.07454710922787632 -0.05740082324015164
81.19 0.10052762705824028 -0.03412027774664375 -0.05169581620233629 0.2751717983949307 -0.05506043654020191 0.2720861888528312 -0.07874390555741781 0.03425446462292093
81.685 0.017574563272472227 -0.01613057920132511 0.1044009085505902 -0.25886323596355426 0.10164155162023285 -0.2583533030769188 -0.13923362345370977 -0.02845824697965449
82.18 0.073713355233149 0.05363487448002089 -0.15038145897566296 0.23411234285019997 -0.1531285236119785 0.2279027275913652 -0.050793200323875326 -0.029316411121088216
82.675 0.13305142492111258 -0.018696059432012704 0.1908146808504471 -0.1960962906282932 0.20292721165086872 -0.1925320779917814 -0.10791296274696816 0.03866284791564188
83.17 0.055570885562164225 -0.04557368620415958 -0.2263410878323205 0.1572501080070835 -0.23025630021906754 0.15421229493346458 -0.11890997842397333 -0.04686801132195893
83.665 0.062056717642746326 0.04565724469180898 0.25084502194039476 -0.10424279326223389 0.25880314314918235 -0.09918114029148356 -0.04724045654945016 0.004773883351797737
84.16 0.1473124125454967 0.020597870111206427 -0.2569279143526132 0.05117281880945464 -0.27602861183737587 0.046186740295281435 -0.13321379136734887 0.0240770692457657
84.655 0.09597183544369285 -0.04275717582007213 0.26432783308594 0.000655594187552956 0.27505417860715176 0.0022393990621501847 -0.09062226191587108 -0.05081742399472627
85.15 0.045442620021021334 0.03715173369711558 -0.2564663508110045 -0.06233942680390672 -0.26663400797921466 -0.06493179781904387 -0.06353877262704749 0.033680307246373
85.645 0.12623625279400577 0.06130958101167196 0.23028005725645198 0.10679870857352132 0.25054335761081514 0.11313457679492052 -0.14065475957571996 -0.0018134954084762156
86.14 0.11379152569767526 -0.021607672034783202 -0.20919473473791403 -0.15543664293595713 -0.2193918971712067 -0.154689965764002 -0.06153341643274522 -0.034477842433082204
86.635 0.02874244688398878 0.013531126407343245 0.16770301551438738 0.20221936280536695 0.17646570422083696 0.2006004192521752 -0.09031659789479259 0.04802396663112873
87.13 0.08201247035197992 0.0739277954126527 -0.12400035570019703 -0.22535527834192673 -0.13804460709198996 -0.22830828805896258 -0.12990480490957 -0.025489157126055786
87.625 0.11973828301548264 -0.004658206431080122 0.07770329365637756 0.25061142402432257 0.08502457556852243 0.2462322504625885 -0.04876998146869874 -0.004143247740252257
88.12 0.03313433261725906 -0.025281391083853483 -0.02096689727867119 -0.26361908325515554 -0.025698746203209347 -0.2588989448595051 -0.11897545826466206 0.04504516489593095
88.615 0.0471515452537939 0.0535641641629708 -0.027456193505625386 0.26152612045543316 -0.020475653882947167 0.26013580935375913 -0.10721510376768177 -0.03669611733912116
89.11 0.12434273798707914 0.008033345941085481 0.0786823744927998 -0.2511869886125117 0.07682209084743659 -0.242878001845873 -0.05446154811556862 0.02962429275455507
89.605 0.06766049726489876 -0.054382465054109236 -0.12640653507376318 0.23060809645294983 -0.13025199449743677 0.22275771868274047 -0.1397013278239487 0.026941066953202086
90.1 0.038361244042790364 0.020219734893239517 0.16796783644938817 -0.20155818919076798 0.16797990575164856 -0.19607454847446898 -0.08182783003518299 -0.030909158216313053
90.595 0.1276817904098152 0.028359329495450426 -0.20013156048912556 0.1575450527101727 -0.20586916452207732 0.1495356913071907 -0.07955807545222662 0.05282798594078929
91.09 0.11230831946279608 -0.050944828955613336 0.22421004340634867 -0.11584573586883266 0.23654245949543204 -0.1065632826923439 -0.14326185196890073 0.0009774445054317005
91.585 0.044855059621995645 -0.0033559787904720645 -0.24639383065751488 0.06631907033221371 -0.2515063056597375 0.06149243675954485 -0.06486782455016696 -0.010499739000275243
92.08 0.11030964103027836 0.05408789024353566 0.24515958719281714 -0.010007645583634176 0.2563554743615373 -0.002361183933829371 -0.1119980743327743 0.05723066579006384
92.575 0.1387260923489118 -0.018468857772259248 -0.24044859698121573 -0.03601922559701898 -0.25635858694850916 -0.04604564095241044 -0.13141031180551938 -0.02137585809026182
93.07 0.05345036277819526 -0.015935160703262306 0.2328721410400548 0.09195416749438916 0.24173378226936143 0.09355367296557053 -0.06119556677049638 0.01775690435029833
93.565 0.07361159365206976 0.06532742568699629 -0.20148189698374014 -0.13700412212273314 -0.21193183245067046 -0.142601418681445 -0.13911547495579113 0.04339013353895125
94.06 0.13510055194307916 0.01757615937486336 0.17291758762537782 0.1726517352903419 0.18661157714527815 0.18059547053725294 -0.1077521933179415 -0.02992013077457397
94.555 0.06305327160360347 -0.030021058748762403 -0.1338130244614969 -0.21232141329704002 -0.14302314718480033 -0.21023872042777117 -0.07616533763666407 0.044195814672888724
95.05 0.036173651132090374 0.044409514640397926 0.08703038597855067 0.23387300960592816 0.09411391637115736 0.2346889464007952 -0.15206492666697255 0.01877299251596994
95.545 0.11601712719069986 0.03627846262313659 -0.04189202818125303 -0.2444105293942562 -0.05151341028112573 -0.24925164370032982 -0.0837244589323699 -0.020047484942462994
96.04 0.08567314919470002 -0.04463787420430027 -0.009602211975904237 0.2510400335876738 -0.003672175485547513 0.24534677640083358 -0.10243378006646975 0.05743546385163109
96.535 0.025228150468998452 0.0019073024182630705 0.05689515868535513 -0.24464469033243338 0.05536810179727551 -0.24019603298851017 -0.14935716375573235 -0.006815224863179082
97.03 0.09780397806901897 0.03909202343444429 -0.10279175381730983 0.22578630950315842 -0.09929323381649323 0.2267006914442315 -0.07239779442694559 0.003326841517176972
97.525 0.11811917053371135 -0.041544969635422965 0.1426615536580417 -0.19627576068916897 0.14333576337059237 -0.1917712519925302 -0.1334522885228673 0.05316764363709036
98.02 0.04368812053785813 -0.0337886830625172 -0.17850339174704144 0.1669357348446888 -0.18261622410200995 0.16055464139192793 -0.13212056762422683 -0.024490953555809887
98.515 0.08305855809578562 0.03983090903802263 0.2084861458241515 -0.12203932044437409 0.20874370422162744 -0.12106529448827057 -0.07829303417664242 0.029359832739183658
99.01 0.14221367770454532 -0.012275284321235716 -0.22067539596680233 0.07449361847835397 -0.2262572037740657 0.06882125575053234 -0.15629705617672146 0.03207403522115267
99.505 0.07419621390800664 -0.044392460594971345 0.23420252529126923 -0.029919067436745668 0.24111645921228805 -0.022724356747104386 -0.10940144144021235 -0.028498505935581814
100.0 0.06281531533548963 0.038872289193714236 -0.23511137876982882 -0.025570545021145686 -0.23853413157811829 -0.025384743948257512 -0.09798818740588128 0.046330357108081574
